%nproc=24
%mem=75GB
#p blyp/Def2SVP td=(nstates=5)

step_1201_chromophore_7 TDDFT with blyp functional

0 1
Mg   25.944   0.123   29.595
C   27.705   -0.518   32.657
C   23.019   0.059   31.666
C   24.111   -0.072   26.843
C   28.772   -0.805   27.891
N   25.426   -0.206   31.918
C   26.372   -0.295   32.937
C   25.743   -0.137   34.273
C   24.224   -0.373   33.938
C   24.216   -0.129   32.410
C   23.682   -1.816   34.123
C   26.116   1.268   34.900
C   26.556   1.275   36.374
C   25.880   0.397   37.390
O   24.799   -0.145   37.232
O   26.693   0.292   38.529
N   23.893   0.195   29.277
C   22.895   0.211   30.291
C   21.596   0.431   29.615
C   21.862   0.480   28.228
C   23.363   0.116   28.081
C   20.300   0.683   30.383
C   20.869   0.713   27.103
O   21.162   0.576   25.974
C   19.338   0.832   27.458
N   26.315   -0.605   27.627
C   25.430   -0.427   26.648
C   26.169   -0.359   25.247
C   27.660   -0.324   25.729
C   27.609   -0.538   27.171
C   25.869   -1.561   24.266
C   28.429   0.961   25.369
C   29.782   0.696   24.608
N   27.822   -0.441   30.088
C   28.902   -0.745   29.304
C   30.089   -0.857   30.062
C   29.653   -0.819   31.385
C   28.250   -0.633   31.356
C   31.520   -0.986   29.617
C   30.135   -0.906   32.782
O   31.257   -1.032   33.221
C   28.838   -0.759   33.673
C   28.747   -1.964   34.460
O   27.973   -2.874   34.233
O   29.579   -1.875   35.552
C   29.115   -2.606   36.683
C   26.207   -0.570   39.591
C   26.021   0.139   40.881
C   24.932   0.658   41.441
C   23.529   0.756   40.857
C   24.972   1.073   42.928
C   24.563   0.018   43.930
C   23.160   0.106   44.506
C   23.149   0.551   46.021
C   22.610   -0.538   46.993
C   22.461   1.944   46.238
C   23.207   2.721   47.338
C   22.183   3.206   48.253
C   22.657   4.149   49.352
C   22.374   3.635   50.785
C   22.131   5.625   49.288
C   22.785   6.506   48.161
C   21.996   7.784   47.802
C   22.643   8.684   46.777
C   23.153   10.044   47.479
C   21.878   8.979   45.512
H   22.140   0.222   32.293
H   23.595   -0.092   25.881
H   29.702   -1.004   27.355
H   26.144   -0.938   34.894
H   23.611   0.428   34.353
H   23.421   -2.283   33.173
H   22.752   -1.802   34.690
H   24.425   -2.473   34.576
H   25.230   1.890   34.771
H   26.867   1.704   34.242
H   26.404   2.260   36.814
H   27.626   1.069   36.368
H   19.836   1.618   30.073
H   20.517   0.744   31.449
H   19.589   -0.127   30.219
H   18.986   -0.036   28.015
H   18.794   0.619   26.538
H   19.000   1.802   27.821
H   25.892   0.579   24.767
H   28.077   -1.272   25.390
H   24.793   -1.697   24.158
H   26.422   -2.437   24.605
H   26.304   -1.381   23.283
H   28.624   1.436   26.331
H   27.800   1.633   24.787
H   30.564   1.447   24.714
H   29.559   0.735   23.542
H   30.073   -0.334   24.814
H   31.584   -1.258   28.563
H   31.892   -1.844   30.177
H   32.256   -0.264   29.972
H   28.914   0.112   34.325
H   30.004   -2.712   37.306
H   28.868   -3.648   36.477
H   28.340   -2.050   37.211
H   26.917   -1.394   39.517
H   25.212   -0.881   39.272
H   26.848   -0.220   41.494
H   22.882   -0.120   40.892
H   23.569   1.013   39.798
H   22.959   1.577   41.292
H   24.287   1.914   43.033
H   25.980   1.422   43.152
H   25.402   0.007   44.626
H   24.663   -0.963   43.466
H   22.824   -0.931   44.490
H   22.582   0.757   43.849
H   24.202   0.747   46.220
H   21.618   -0.279   47.363
H   23.334   -0.601   47.806
H   22.578   -1.523   46.527
H   21.382   1.926   46.393
H   22.648   2.628   45.410
H   23.853   3.504   46.940
H   23.788   2.003   47.918
H   21.615   2.394   48.708
H   21.546   3.829   47.626
H   23.727   4.343   49.430
H   22.401   2.546   50.765
H   21.417   3.833   51.268
H   23.045   3.895   51.604
H   22.291   5.927   50.323
H   21.043   5.692   49.297
H   22.772   5.950   47.224
H   23.783   6.848   48.438
H   21.817   8.250   48.771
H   21.080   7.362   47.389
H   23.561   8.157   46.520
H   22.962   10.018   48.552
H   22.642   10.875   46.992
H   24.221   10.248   47.410
H   22.312   8.302   44.776
H   21.811   10.036   45.255
H   20.825   8.698   45.506

