%nproc=24
%mem=75GB
#p wB97XD/Def2SVP td=(nstates=5)

step_651_chromophore_14 TDDFT with wB97XD functional

0 1
Mg   46.504   44.971   42.905
C   43.118   44.239   42.477
C   47.305   41.654   42.674
C   49.758   45.869   42.439
C   45.766   48.501   42.441
N   45.352   43.136   42.679
C   43.937   43.124   42.508
C   43.460   41.702   42.317
C   44.752   40.857   42.617
C   45.880   41.918   42.630
C   44.825   40.154   44.008
C   42.811   41.324   40.956
C   43.165   42.164   39.641
C   43.055   41.360   38.303
O   42.673   40.199   38.242
O   43.695   42.049   37.296
N   48.297   43.853   42.579
C   48.409   42.516   42.425
C   49.716   42.181   42.216
C   50.543   43.323   42.164
C   49.526   44.452   42.422
C   50.089   40.707   41.937
C   52.012   43.445   41.837
O   52.643   42.392   41.778
C   52.734   44.709   41.527
N   47.599   46.974   42.289
C   48.925   46.971   42.475
C   49.425   48.459   42.501
C   48.196   49.329   42.339
C   47.103   48.180   42.324
C   50.375   48.795   43.692
C   48.167   50.230   41.061
C   47.545   51.604   41.242
N   44.805   46.207   42.559
C   44.623   47.566   42.468
C   43.159   47.884   42.469
C   42.572   46.583   42.472
C   43.587   45.626   42.500
C   42.588   49.139   42.510
C   41.298   45.871   42.420
O   40.124   46.281   42.381
C   41.626   44.378   42.566
C   41.094   43.881   43.815
O   40.214   43.046   43.912
O   41.629   44.477   44.896
C   41.032   44.284   46.218
C   43.911   41.248   36.064
C   44.424   42.410   35.174
C   45.145   42.344   34.080
C   45.709   41.032   33.444
C   45.541   43.552   33.325
C   44.776   43.766   31.972
C   45.657   44.056   30.705
C   44.860   43.778   29.361
C   43.411   44.382   29.343
C   44.608   42.261   29.166
C   45.065   41.780   27.770
C   44.002   42.061   26.618
C   44.620   43.228   25.731
C   43.796   44.483   26.014
C   44.543   42.846   24.187
C   45.631   43.528   23.336
C   46.204   42.490   22.293
C   47.682   42.691   21.730
C   47.684   42.532   20.199
C   48.750   41.744   22.309
H   47.522   40.600   42.864
H   50.808   46.054   42.205
H   45.611   49.565   42.628
H   42.632   41.561   43.012
H   44.937   40.199   41.768
H   43.861   40.359   44.474
H   45.647   40.543   44.608
H   44.962   39.092   43.804
H   41.744   41.402   41.165
H   42.979   40.262   40.778
H   44.216   42.448   39.590
H   42.448   42.984   39.595
H   49.343   39.976   42.247
H   50.908   40.342   42.556
H   50.499   40.519   40.945
H   52.674   45.290   42.447
H   52.250   45.188   40.675
H   53.774   44.408   41.398
H   50.012   48.593   41.592
H   47.983   49.882   43.254
H   51.432   48.817   43.425
H   50.239   48.045   44.470
H   50.111   49.813   43.977
H   47.556   49.587   40.427
H   49.117   50.483   40.590
H   47.190   51.859   42.240
H   46.782   51.770   40.482
H   48.245   52.435   41.158
H   42.810   49.642   41.569
H   42.980   49.689   43.365
H   41.501   49.223   42.520
H   41.141   43.688   41.877
H   39.951   44.264   46.078
H   41.269   45.153   46.832
H   41.380   43.407   46.764
H   42.965   40.865   35.680
H   44.576   40.387   36.127
H   44.227   43.426   35.514
H   45.035   40.227   33.736
H   46.635   40.881   34.000
H   45.865   41.042   32.365
H   46.614   43.472   33.155
H   45.472   44.427   33.970
H   44.057   44.579   32.074
H   44.443   42.746   31.781
H   46.582   43.479   30.719
H   45.924   45.103   30.845
H   45.463   44.098   28.511
H   42.783   44.223   28.466
H   43.455   45.444   29.580
H   42.898   43.986   30.219
H   43.535   42.070   29.141
H   45.041   41.667   29.971
H   45.330   40.724   27.720
H   46.003   42.276   27.522
H   43.054   42.248   27.123
H   43.814   41.179   26.007
H   45.597   43.629   26.000
H   42.719   44.372   26.143
H   43.904   45.111   25.130
H   44.168   44.942   26.930
H   43.534   43.070   23.843
H   44.634   41.761   24.135
H   46.369   43.954   24.015
H   45.101   44.300   22.778
H   45.432   42.446   21.525
H   46.252   41.473   22.683
H   48.043   43.686   21.989
H   46.673   42.578   19.796
H   48.011   41.547   19.867
H   48.307   43.306   19.750
H   48.322   40.742   22.273
H   48.996   41.965   23.347
H   49.667   41.942   21.753

