%nproc=24
%mem=75GB
#p wB97XD/Def2SVP td=(nstates=5)

step_651_chromophore_22 TDDFT with wB97XD functional

0 1
Mg   9.005   47.482   25.449
C   7.034   47.948   28.308
C   11.642   48.851   27.138
C   10.847   47.588   22.516
C   5.982   47.182   23.499
N   9.268   48.359   27.488
C   8.364   48.345   28.560
C   9.067   48.829   29.830
C   10.305   49.626   29.224
C   10.486   48.896   27.899
C   10.116   51.191   28.996
C   9.493   47.645   30.821
C   9.092   47.681   32.281
C   8.912   46.288   32.926
O   9.027   45.184   32.406
O   8.693   46.526   34.284
N   11.064   47.680   25.010
C   11.948   48.274   25.861
C   13.225   48.398   25.213
C   13.028   47.986   23.868
C   11.571   47.756   23.728
C   14.502   48.825   25.848
C   14.053   47.875   22.702
O   13.758   47.280   21.677
C   15.455   48.397   22.848
N   8.488   47.375   23.309
C   9.477   47.308   22.300
C   8.794   47.176   20.986
C   7.337   46.818   21.321
C   7.247   47.207   22.831
C   8.944   48.446   20.106
C   6.979   45.301   21.107
C   6.090   44.911   19.920
N   6.939   47.549   25.735
C   5.837   47.398   24.887
C   4.658   47.395   25.719
C   5.073   47.595   27.044
C   6.416   47.713   26.989
C   3.234   47.434   25.206
C   4.605   47.702   28.438
O   3.476   47.710   28.851
C   5.925   47.817   29.332
C   6.078   46.665   30.297
O   6.768   45.701   30.155
O   5.175   46.761   31.317
C   5.112   45.633   32.232
C   8.803   45.300   35.114
C   8.987   45.723   36.524
C   8.162   46.314   37.431
C   6.767   46.910   37.116
C   8.663   46.664   38.871
C   9.005   45.362   39.754
C   10.503   45.115   40.016
C   10.955   45.703   41.395
C   11.047   47.239   41.349
C   12.302   45.070   41.826
C   12.117   44.167   43.094
C   13.424   43.766   43.738
C   13.318   43.970   45.312
C   13.849   42.729   46.069
C   13.969   45.319   45.649
C   13.258   46.202   46.731
C   13.269   47.695   46.335
C   12.203   48.020   45.216
C   12.766   49.238   44.359
C   10.712   48.151   45.676
H   12.487   49.404   27.555
H   11.444   47.918   21.663
H   5.271   46.854   22.738
H   8.523   49.530   30.463
H   11.159   49.368   29.851
H   10.837   51.787   29.556
H   9.095   51.530   29.177
H   10.368   51.430   27.963
H   10.582   47.692   30.821
H   9.257   46.646   30.454
H   8.154   48.213   32.437
H   9.944   48.079   32.832
H   14.456   49.079   26.907
H   14.892   49.703   25.334
H   15.181   47.974   25.799
H   15.307   49.445   23.108
H   15.950   48.328   21.879
H   16.149   47.909   23.532
H   9.304   46.425   20.383
H   6.687   47.394   20.662
H   8.213   49.072   20.619
H   8.685   48.352   19.052
H   9.938   48.821   20.351
H   6.486   44.815   21.949
H   7.956   44.828   21.017
H   5.571   43.978   20.141
H   6.675   44.831   19.004
H   5.375   45.732   19.871
H   2.715   48.348   25.494
H   2.706   46.539   25.536
H   3.263   47.378   24.118
H   5.831   48.737   29.910
H   4.775   46.016   33.195
H   6.055   45.095   32.327
H   4.386   44.885   31.914
H   9.535   44.561   34.789
H   7.834   44.817   34.989
H   9.944   45.472   36.983
H   5.962   46.488   37.717
H   6.547   46.739   36.062
H   6.745   47.964   37.394
H   7.886   47.242   39.370
H   9.547   47.279   38.701
H   8.670   44.448   39.265
H   8.470   45.497   40.695
H   11.167   45.570   39.281
H   10.815   44.073   40.087
H   10.190   45.277   42.045
H   10.383   47.717   42.070
H   10.768   47.620   40.367
H   11.979   47.724   41.640
H   13.106   45.804   41.882
H   12.771   44.308   41.203
H   11.771   43.223   42.671
H   11.422   44.569   43.832
H   14.259   44.340   43.336
H   13.559   42.719   43.466
H   12.305   44.074   45.699
H   14.402   42.994   46.970
H   14.611   42.276   45.435
H   13.120   41.923   46.154
H   14.180   45.941   44.779
H   14.935   45.003   46.041
H   13.855   46.169   47.643
H   12.238   45.882   46.943
H   14.292   47.947   46.056
H   12.895   48.199   47.227
H   12.110   47.112   44.620
H   13.672   49.668   44.787
H   11.985   49.998   44.326
H   12.905   49.005   43.303
H   10.754   48.271   46.758
H   10.272   47.208   45.351
H   10.174   48.977   45.211

