%nproc=24
%mem=75GB
#p wB97XD/Def2SVP td=(nstates=5)

step_1501_chromophore_7 TDDFT with wB97XD functional

0 1
Mg   25.855   -0.668   29.151
C   27.887   -0.691   32.008
C   23.197   -0.384   31.366
C   23.953   -0.070   26.599
C   28.586   -1.405   27.270
N   25.635   -0.566   31.458
C   26.619   -0.525   32.362
C   26.095   -0.185   33.720
C   24.577   -0.474   33.553
C   24.447   -0.423   32.031
C   24.038   -1.784   34.190
C   26.516   1.254   34.170
C   26.959   1.370   35.688
C   26.196   2.454   36.538
O   25.529   3.365   36.115
O   26.394   2.159   37.865
N   23.842   -0.402   29.001
C   22.945   -0.264   29.982
C   21.659   -0.075   29.367
C   21.830   -0.064   27.970
C   23.280   -0.192   27.783
C   20.412   0.189   30.218
C   20.770   -0.026   26.752
O   21.127   0.039   25.551
C   19.255   0.047   27.096
N   26.163   -1.033   27.178
C   25.277   -0.468   26.333
C   25.832   -0.534   24.825
C   27.336   -0.643   25.127
C   27.362   -1.180   26.597
C   25.242   -1.627   23.946
C   28.129   0.782   25.029
C   29.516   0.804   24.332
N   27.868   -1.140   29.514
C   28.864   -1.359   28.664
C   30.078   -1.446   29.304
C   29.789   -1.202   30.664
C   28.413   -1.015   30.738
C   31.398   -1.663   28.599
C   30.366   -1.029   31.899
O   31.531   -1.102   32.234
C   29.127   -0.637   32.873
C   29.229   -1.594   34.031
O   28.685   -2.667   34.055
O   29.879   -0.972   35.014
C   29.687   -1.566   36.319
C   25.538   2.834   38.866
C   24.840   1.866   39.829
C   25.335   1.028   40.789
C   26.801   0.935   41.216
C   24.391   0.139   41.581
C   24.111   0.553   43.001
C   22.574   0.448   43.302
C   22.321   0.374   44.911
C   21.053   -0.375   45.184
C   22.324   1.700   45.590
C   22.699   1.682   47.053
C   21.741   2.548   47.863
C   22.440   3.627   48.689
C   22.868   3.132   50.034
C   21.372   4.787   48.724
C   21.898   6.209   48.174
C   21.085   6.681   46.875
C   21.984   6.982   45.545
C   21.726   8.375   44.907
C   21.680   5.940   44.394
H   22.368   -0.337   32.076
H   23.520   0.168   25.625
H   29.494   -1.533   26.677
H   26.484   -0.855   34.487
H   24.049   0.412   33.906
H   24.716   -2.238   34.913
H   23.793   -2.424   33.342
H   23.053   -1.584   34.611
H   25.653   1.885   33.953
H   27.319   1.714   33.594
H   28.012   1.648   35.736
H   26.763   0.459   36.255
H   20.659   0.470   31.241
H   19.900   -0.772   30.262
H   19.733   0.978   29.893
H   18.685   0.295   26.201
H   19.262   0.842   27.842
H   18.941   -0.924   27.479
H   25.661   0.431   24.348
H   27.925   -1.343   24.535
H   24.205   -1.771   24.249
H   25.702   -2.608   24.071
H   25.081   -1.201   22.956
H   28.353   1.085   26.052
H   27.499   1.619   24.727
H   29.739   1.729   23.801
H   29.537   0.020   23.574
H   30.308   0.587   25.047
H   32.037   -0.855   28.956
H   31.423   -1.515   27.519
H   31.923   -2.589   28.836
H   29.276   0.355   33.300
H   29.479   -2.631   36.217
H   28.727   -1.123   36.583
H   30.540   -1.491   36.994
H   24.759   3.333   38.288
H   26.190   3.500   39.430
H   23.753   1.933   39.841
H   26.717   1.097   42.290
H   27.457   1.642   40.707
H   27.162   -0.054   40.935
H   25.007   -0.760   41.594
H   23.508   -0.123   40.998
H   24.552   1.547   43.078
H   24.726   -0.106   43.613
H   22.154   -0.276   42.604
H   22.052   1.372   43.050
H   23.118   -0.292   45.244
H   21.333   -1.200   45.838
H   20.486   -0.660   44.298
H   20.432   0.279   45.798
H   21.340   2.131   45.410
H   23.087   2.348   45.158
H   23.706   2.065   47.219
H   22.699   0.647   47.394
H   21.222   1.878   48.548
H   21.043   3.026   47.175
H   23.312   4.031   48.174
H   23.898   3.460   50.175
H   22.933   2.049   49.925
H   22.263   3.481   50.871
H   21.173   5.128   49.741
H   20.422   4.508   48.268
H   22.973   6.337   48.044
H   21.649   6.917   48.964
H   20.600   7.597   47.211
H   20.274   6.001   46.614
H   23.059   6.975   45.724
H   20.991   8.420   44.104
H   22.697   8.689   44.525
H   21.265   8.989   45.681
H   21.122   6.413   43.586
H   21.051   5.162   44.827
H   22.608   5.614   43.925

