%nproc=24
%mem=75GB
#p cam-b3lyp/Def2SVP td=(nstates=5)

step_951_chromophore_8 TDDFT with cam-b3lyp functional

0 1
Mg   44.615   2.912   47.345
C   42.435   5.450   47.111
C   42.066   0.632   47.235
C   46.957   0.341   47.125
C   47.227   5.180   47.220
N   42.503   3.009   47.065
C   41.755   4.209   47.029
C   40.203   3.907   46.995
C   40.192   2.427   47.388
C   41.648   1.996   47.176
C   39.552   2.042   48.744
C   39.639   4.246   45.648
C   38.480   5.232   45.628
C   38.000   5.825   44.328
O   36.817   5.979   44.024
O   39.054   6.102   43.545
N   44.512   0.775   47.301
C   43.324   0.060   47.359
C   43.581   -1.283   47.363
C   45.032   -1.493   47.210
C   45.609   -0.102   47.181
C   42.466   -2.340   47.464
C   45.751   -2.762   47.114
O   45.128   -3.810   46.863
C   47.217   -2.876   47.249
N   46.792   2.722   47.264
C   47.487   1.624   47.178
C   48.947   1.966   47.475
C   49.005   3.456   46.903
C   47.568   3.841   47.111
C   49.268   1.757   49.010
C   49.722   3.628   45.497
C   50.938   4.594   45.602
N   44.886   4.957   46.941
C   45.990   5.720   47.098
C   45.489   7.110   46.963
C   44.142   7.057   46.992
C   43.805   5.708   47.131
C   46.457   8.375   46.906
C   42.969   7.841   47.032
O   42.763   9.052   47.047
C   41.827   6.822   47.278
C   41.207   7.201   48.592
O   41.780   7.352   49.642
O   39.818   7.164   48.443
C   38.942   7.188   49.584
C   38.601   6.550   42.207
C   39.782   6.780   41.335
C   39.755   7.116   40.007
C   38.589   7.567   39.179
C   41.100   7.033   39.242
C   41.235   6.174   37.952
C   42.442   5.307   38.023
C   42.239   3.981   37.208
C   42.094   2.718   38.153
C   43.465   3.900   36.179
C   42.998   3.978   34.673
C   43.880   4.959   33.842
C   43.917   4.573   32.357
C   45.361   4.466   31.959
C   43.038   5.504   31.475
C   42.674   4.718   30.176
C   42.532   5.633   28.938
C   43.368   5.153   27.671
C   42.469   4.506   26.670
C   44.220   6.220   27.078
H   41.210   -0.046   47.206
H   47.766   -0.384   47.014
H   47.993   5.958   47.202
H   39.767   4.616   47.698
H   39.599   1.825   46.700
H   40.278   1.645   49.453
H   38.852   1.217   48.609
H   39.053   2.895   49.205
H   39.100   3.339   45.377
H   40.377   4.508   44.890
H   38.745   6.126   46.193
H   37.645   4.766   46.151
H   42.348   -2.990   46.597
H   41.441   -2.026   47.659
H   42.750   -3.038   48.251
H   47.698   -2.191   47.946
H   47.643   -2.606   46.282
H   47.483   -3.910   47.471
H   49.549   1.261   46.901
H   49.566   4.091   47.589
H   50.163   1.192   49.270
H   48.467   1.413   49.664
H   49.505   2.729   49.442
H   48.921   4.057   44.896
H   50.058   2.662   45.117
H   51.397   4.573   46.590
H   50.609   5.629   45.511
H   51.736   4.411   44.882
H   47.313   8.146   47.540
H   46.016   9.300   47.280
H   46.792   8.680   45.915
H   41.013   6.922   46.559
H   39.022   6.227   50.093
H   37.906   7.120   49.250
H   39.058   7.916   50.387
H   38.113   7.514   42.352
H   37.994   5.724   41.836
H   40.730   6.541   41.817
H   37.737   7.969   39.727
H   38.382   6.589   38.743
H   38.786   8.150   38.280
H   41.974   6.799   39.850
H   41.391   8.059   39.015
H   41.547   6.898   37.199
H   40.390   5.541   37.678
H   42.763   4.973   39.010
H   43.291   5.949   37.785
H   41.270   3.953   36.708
H   41.647   3.048   39.090
H   42.929   2.029   38.280
H   41.298   2.131   37.694
H   43.937   2.938   36.380
H   44.273   4.597   36.397
H   41.979   4.357   34.744
H   43.026   2.957   34.293
H   44.899   4.950   34.227
H   43.498   5.948   34.097
H   43.483   3.575   32.281
H   45.546   4.637   30.899
H   45.572   3.397   31.956
H   46.008   5.115   32.550
H   43.417   6.507   31.280
H   42.048   5.584   31.923
H   41.710   4.267   30.413
H   43.449   3.968   30.018
H   42.863   6.661   29.087
H   41.457   5.668   28.766
H   44.049   4.413   28.093
H   42.531   3.420   26.614
H   42.778   4.930   25.714
H   41.426   4.745   26.878
H   44.314   7.084   27.736
H   43.896   6.542   26.088
H   45.245   5.876   27.220

