%nproc=24
%mem=50gb
#p ZINDO=(nstates=5)

step_1851_chromophore_24 ZINDO

0 1
Mg   -0.795   43.484   25.630
C   1.600   42.867   27.999
C   -3.219   42.692   28.051
C   -3.146   43.494   23.213
C   1.641   43.683   23.189
N   -0.702   42.806   27.739
C   0.351   42.816   28.563
C   -0.000   42.650   30.059
C   -1.548   42.276   29.902
C   -1.864   42.575   28.498
C   -1.899   40.757   30.237
C   0.167   43.961   30.837
C   0.815   43.829   32.234
C   0.679   42.499   33.029
O   1.514   41.646   33.246
O   -0.668   42.282   33.398
N   -2.831   43.204   25.671
C   -3.665   42.878   26.700
C   -5.069   42.963   26.227
C   -5.021   43.341   24.894
C   -3.579   43.335   24.539
C   -6.292   42.797   27.183
C   -6.185   43.645   23.956
O   -6.037   44.089   22.814
C   -7.612   43.646   24.591
N   -0.710   43.551   23.463
C   -1.854   43.682   22.736
C   -1.459   43.856   21.203
C   0.081   44.193   21.255
C   0.354   43.792   22.737
C   -1.578   42.612   20.251
C   0.526   45.676   21.009
C   0.111   46.768   22.034
N   1.157   43.340   25.565
C   2.061   43.346   24.483
C   3.419   43.250   24.992
C   3.275   43.023   26.325
C   1.870   43.044   26.651
C   4.740   43.477   24.246
C   3.972   42.757   27.566
O   5.154   42.600   27.780
C   2.938   42.759   28.697
C   3.178   41.409   29.277
O   2.799   40.307   28.853
O   3.913   41.617   30.396
C   4.512   40.469   31.087
C   -0.854   41.169   34.298
C   -2.243   41.508   34.890
C   -2.770   40.991   35.976
C   -2.037   39.939   36.909
C   -4.168   41.489   36.549
C   -5.343   40.664   36.022
C   -6.496   41.571   35.380
C   -7.465   42.013   36.495
C   -7.472   43.591   36.703
C   -8.955   41.533   36.172
C   -9.487   40.449   37.143
C   -10.044   41.202   38.409
C   -11.552   40.852   38.619
C   -12.213   42.067   39.460
C   -11.846   39.440   39.416
C   -13.157   38.782   38.926
C   -13.598   37.621   39.815
C   -15.070   37.749   40.277
C   -15.338   38.706   41.435
C   -15.635   36.314   40.570
H   -4.095   42.630   28.699
H   -3.920   43.441   22.444
H   2.419   44.003   22.492
H   0.641   41.854   30.439
H   -2.196   42.871   30.546
H   -2.489   40.352   29.415
H   -2.451   40.660   31.172
H   -0.986   40.210   30.471
H   -0.783   44.489   30.920
H   0.773   44.617   30.213
H   0.328   44.539   32.902
H   1.864   44.120   32.170
H   -6.698   43.749   27.524
H   -5.984   42.435   28.164
H   -7.092   42.208   26.733
H   -7.601   44.146   25.560
H   -7.944   42.618   24.734
H   -8.213   44.324   23.985
H   -1.965   44.712   20.757
H   0.729   43.584   20.625
H   -1.806   41.804   20.946
H   -0.646   42.542   19.689
H   -2.423   42.773   19.582
H   -0.016   46.073   20.151
H   1.600   45.788   20.864
H   0.943   47.024   22.690
H   -0.650   46.249   22.617
H   -0.346   47.675   21.638
H   4.772   44.064   23.328
H   5.293   42.552   24.080
H   5.303   44.068   24.969
H   3.068   43.485   29.500
H   5.379   40.888   31.596
H   4.827   39.630   30.465
H   3.823   40.107   31.850
H   -0.186   41.193   35.160
H   -0.905   40.255   33.707
H   -2.723   42.335   34.366
H   -1.120   39.585   36.437
H   -2.673   39.072   37.083
H   -1.792   40.460   37.834
H   -4.320   42.548   36.341
H   -4.254   41.303   37.620
H   -5.844   40.095   36.805
H   -4.969   39.926   35.313
H   -7.044   41.009   34.624
H   -6.039   42.431   34.892
H   -7.147   41.500   37.403
H   -6.564   43.795   37.271
H   -8.270   43.858   37.395
H   -7.636   44.072   35.738
H   -8.963   41.093   35.175
H   -9.733   42.286   36.045
H   -8.573   39.900   37.371
H   -10.205   39.774   36.679
H   -10.037   42.275   38.220
H   -9.421   40.946   39.266
H   -12.102   40.827   37.678
H   -11.501   42.869   39.655
H   -12.560   41.805   40.459
H   -13.063   42.521   38.952
H   -12.026   39.691   40.462
H   -11.038   38.708   39.428
H   -12.920   38.424   37.924
H   -13.892   39.562   38.728
H   -13.011   37.530   40.729
H   -13.412   36.716   39.237
H   -15.630   38.118   39.418
H   -15.909   38.287   42.263
H   -15.937   39.522   41.030
H   -14.389   39.188   41.669
H   -16.458   36.182   39.868
H   -16.032   36.237   41.583
H   -14.898   35.541   40.354

