%nproc=24
%mem=50gb
#p ZINDO=(nstates=5)

step_201_chromophore_22 ZINDO

0 1
Mg   8.658   48.462   24.727
C   6.661   48.706   27.389
C   11.286   49.832   26.476
C   10.514   48.358   21.949
C   5.820   47.902   22.689
N   8.978   49.057   26.690
C   7.974   49.088   27.653
C   8.533   49.599   28.945
C   9.778   50.289   28.460
C   10.066   49.627   27.124
C   9.546   51.819   28.280
C   8.943   48.421   29.874
C   9.009   48.659   31.322
C   8.409   47.605   32.238
O   7.720   46.655   31.874
O   8.745   47.711   33.608
N   10.692   48.773   24.341
C   11.608   49.314   25.226
C   12.919   49.257   24.684
C   12.778   48.829   23.267
C   11.302   48.577   23.134
C   14.167   49.664   25.526
C   13.820   48.614   22.137
O   13.466   48.339   20.950
C   15.332   48.788   22.448
N   8.146   48.290   22.547
C   9.122   48.347   21.657
C   8.604   48.077   20.238
C   7.141   47.626   20.599
C   7.002   48.002   21.976
C   8.702   49.279   19.256
C   6.811   46.118   20.296
C   5.440   45.976   19.681
N   6.606   48.247   24.943
C   5.631   48.021   24.063
C   4.344   47.992   24.761
C   4.717   48.198   26.124
C   6.085   48.336   26.157
C   3.024   47.893   24.142
C   4.282   48.221   27.446
O   3.212   47.872   27.967
C   5.453   48.805   28.339
C   5.450   48.072   29.699
O   5.540   46.851   29.855
O   5.195   49.030   30.613
C   4.915   48.514   32.007
C   8.120   46.650   34.453
C   8.529   46.875   35.932
C   7.733   46.832   37.068
C   6.393   46.225   37.188
C   8.372   47.248   38.405
C   9.277   46.175   39.104
C   10.822   46.478   39.138
C   11.379   46.771   40.531
C   11.167   48.173   40.984
C   12.917   46.432   40.706
C   12.962   45.034   41.375
C   14.348   44.673   41.821
C   14.227   44.085   43.220
C   15.288   42.967   43.399
C   14.537   45.220   44.263
C   13.473   45.167   45.324
C   13.567   46.475   46.185
C   12.159   47.052   46.595
C   11.967   48.219   45.604
C   12.091   47.604   48.135
H   12.115   50.305   27.006
H   11.022   48.445   20.986
H   4.958   47.787   22.027
H   7.856   50.302   29.429
H   10.659   50.193   29.095
H   8.532   52.101   27.996
H   10.246   52.101   27.493
H   9.676   52.184   29.299
H   9.916   47.994   29.634
H   8.253   47.610   29.641
H   8.562   49.618   31.583
H   10.049   48.762   31.632
H   13.893   49.774   26.575
H   14.504   50.669   25.270
H   14.977   48.934   25.500
H   15.890   48.271   21.667
H   15.505   48.368   23.439
H   15.489   49.865   22.502
H   9.193   47.256   19.829
H   6.370   48.041   19.950
H   9.146   50.110   19.804
H   7.674   49.419   18.922
H   9.278   49.006   18.372
H   6.860   45.523   21.208
H   7.586   45.733   19.633
H   5.277   44.900   19.616
H   5.411   46.431   18.691
H   4.616   46.323   20.305
H   2.288   47.619   24.897
H   3.124   47.047   23.463
H   2.707   48.798   23.624
H   5.337   49.874   28.512
H   4.871   49.327   32.731
H   5.678   47.821   32.363
H   3.994   47.933   31.951
H   8.283   45.600   34.213
H   7.047   46.828   34.381
H   9.501   47.304   36.174
H   5.713   46.993   37.555
H   6.349   45.542   38.036
H   6.161   45.727   36.246
H   7.616   47.430   39.168
H   8.885   48.175   38.148
H   9.165   45.238   38.558
H   8.842   45.947   40.077
H   11.157   47.247   38.442
H   11.286   45.557   38.785
H   10.754   46.288   41.282
H   11.866   48.474   41.763
H   10.194   48.344   41.445
H   11.394   48.821   40.137
H   13.455   47.158   41.316
H   13.343   46.486   39.704
H   12.588   44.322   40.639
H   12.167   45.070   42.119
H   14.948   45.573   41.688
H   14.649   43.854   41.168
H   13.254   43.619   43.377
H   15.751   42.948   44.385
H   16.076   42.973   42.645
H   14.790   42.009   43.248
H   14.669   46.194   43.792
H   15.517   45.062   44.711
H   13.523   44.397   46.094
H   12.445   45.129   44.965
H   14.098   47.310   45.728
H   14.115   46.277   47.105
H   11.379   46.316   46.401
H   12.314   47.900   44.621
H   12.533   49.060   46.003
H   10.921   48.508   45.497
H   12.996   47.344   48.684
H   11.257   47.003   48.498
H   11.913   48.679   48.157

