%nproc=24
%mem=175gb
#p FUNC/Def2SVP td=(nstates=5)

NAME TDDFT with FUNC functional

0 1
