%nproc=24
%mem=175gb
#p ZINDO=(nstates=5)

NAME ZINDO

0 1
