%nproc=24
%mem=75GB
#p FUNC/Def2SVP td=(nstates=5)

NAME TDDFT with FUNC functional

0 1
