%nproc=24
%mem=50gb
#p ZINDO=(nstates=5)

NAME ZINDO

0 1
