%nproc=24
%mem=50gb
#p ZINDO=(nstates=5)

step_51_chromophore_22 ZINDO

0 1
Mg   8.734   47.801   24.983
C   6.510   48.100   27.819
C   11.181   49.134   27.044
C   10.787   47.914   22.350
C   5.977   47.544   23.025
N   8.750   48.597   27.215
C   7.819   48.513   28.130
C   8.423   49.047   29.442
C   9.754   49.831   29.004
C   9.935   49.136   27.674
C   9.671   51.325   28.733
C   8.624   47.906   30.457
C   8.611   48.374   31.915
C   7.974   47.369   32.918
O   8.276   46.235   33.116
O   6.894   47.937   33.605
N   10.717   48.299   24.749
C   11.565   48.603   25.767
C   12.948   48.611   25.299
C   12.894   48.349   23.881
C   11.434   48.185   23.564
C   14.109   48.895   26.189
C   13.987   48.207   22.781
O   13.845   47.841   21.601
C   15.306   48.593   23.242
N   8.405   47.897   22.957
C   9.438   47.882   22.013
C   8.983   47.615   20.637
C   7.406   47.332   20.803
C   7.215   47.540   22.348
C   9.266   48.788   19.581
C   6.931   45.821   20.479
C   5.617   45.642   19.765
N   6.591   47.750   25.254
C   5.584   47.625   24.373
C   4.300   47.652   24.996
C   4.687   47.623   26.403
C   6.074   47.810   26.481
C   2.935   47.589   24.399
C   4.158   47.503   27.693
O   2.995   47.181   27.990
C   5.287   47.909   28.594
C   5.302   46.731   29.550
O   6.144   45.796   29.488
O   4.291   46.845   30.502
C   4.291   45.733   31.506
C   6.224   46.953   34.509
C   6.904   46.606   35.796
C   6.475   46.704   37.051
C   5.182   47.285   37.583
C   7.436   46.374   38.136
C   8.005   47.635   38.802
C   9.563   47.676   38.930
C   9.994   47.284   40.361
C   9.973   48.520   41.300
C   11.407   46.566   40.347
C   11.411   45.339   41.372
C   12.878   45.183   41.948
C   13.031   44.086   42.995
C   13.992   43.033   42.487
C   13.487   44.646   44.313
C   12.253   45.092   45.133
C   12.056   46.634   45.057
C   11.223   47.346   46.184
C   10.382   48.592   45.678
C   12.239   47.818   47.303
H   11.973   49.683   27.558
H   11.406   47.732   21.469
H   5.198   47.389   22.275
H   7.746   49.767   29.902
H   10.613   49.597   29.633
H   9.850   51.578   27.688
H   10.396   51.893   29.316
H   8.663   51.723   28.848
H   9.656   47.586   30.309
H   8.000   47.015   30.395
H   8.203   49.370   32.087
H   9.621   48.669   32.201
H   13.826   48.732   27.228
H   14.573   49.875   26.300
H   14.728   48.042   25.909
H   15.607   47.658   23.714
H   15.397   49.468   23.885
H   15.861   48.699   22.310
H   9.443   46.683   20.308
H   6.763   48.036   20.275
H   10.030   48.308   18.969
H   9.691   49.643   20.105
H   8.354   49.013   19.027
H   7.022   45.278   21.420
H   7.620   45.378   19.760
H   4.976   44.869   20.189
H   5.838   45.143   18.821
H   5.134   46.587   19.515
H   2.949   48.113   23.443
H   2.182   48.036   25.048
H   2.734   46.524   24.289
H   4.912   48.817   29.066
H   3.215   45.633   31.653
H   4.822   46.163   32.356
H   4.829   44.807   31.305
H   6.018   45.992   34.038
H   5.226   47.345   34.707
H   7.919   46.211   35.737
H   5.093   47.599   38.623
H   4.297   46.706   37.320
H   5.032   48.222   37.047
H   8.260   45.781   37.737
H   6.943   45.664   38.801
H   7.537   47.765   39.778
H   7.697   48.589   38.374
H   9.798   48.717   38.713
H   10.081   47.130   38.142
H   9.275   46.592   40.800
H   10.664   48.294   42.112
H   9.028   48.691   41.817
H   10.379   49.449   40.899
H   12.257   47.239   40.460
H   11.585   46.076   39.390
H   11.140   44.421   40.851
H   10.707   45.586   42.167
H   13.157   46.121   42.428
H   13.500   45.069   41.061
H   12.104   43.522   43.097
H   14.423   43.319   41.528
H   13.493   42.105   42.210
H   14.893   42.954   43.096
H   14.147   45.491   44.116
H   13.976   43.864   44.894
H   12.346   44.832   46.188
H   11.369   44.521   44.846
H   11.648   46.878   44.076
H   13.035   47.079   45.229
H   10.556   46.568   46.553
H   9.294   48.531   45.693
H   10.725   48.788   44.662
H   10.622   49.448   46.310
H   11.780   48.016   48.272
H   12.683   48.748   46.947
H   13.115   47.178   47.409

