%nproc=24
%mem=75GB
#p PBE1PBE/Def2SVP td=(nstates=5)

step_351_chromophore_12 TDDFT with PBE1PBE functional

0 1
Mg   47.322   15.471   28.107
C   45.411   15.151   31.042
C   48.937   18.121   29.613
C   48.976   15.876   25.295
C   44.785   13.687   26.380
N   47.236   16.458   30.170
C   46.497   16.050   31.226
C   47.017   16.749   32.533
C   47.876   17.944   31.924
C   47.939   17.589   30.413
C   47.238   19.345   32.144
C   47.788   15.613   33.291
C   47.723   15.760   34.739
C   49.131   15.802   35.419
O   50.051   15.073   35.160
O   49.033   16.743   36.473
N   48.916   16.664   27.577
C   49.391   17.684   28.327
C   50.394   18.401   27.485
C   50.579   17.651   26.311
C   49.441   16.693   26.353
C   51.128   19.629   27.918
C   51.589   17.877   25.199
O   51.648   17.146   24.247
C   52.547   18.991   25.249
N   46.876   14.878   26.105
C   47.807   15.077   25.163
C   47.400   14.440   23.765
C   46.184   13.556   24.187
C   45.879   14.043   25.652
C   47.036   15.527   22.724
C   46.467   11.994   24.183
C   46.156   11.200   22.858
N   45.453   14.615   28.518
C   44.557   13.949   27.764
C   43.436   13.462   28.574
C   43.736   13.951   29.890
C   44.930   14.644   29.783
C   42.259   12.690   28.144
C   43.325   13.875   31.252
O   42.399   13.326   31.787
C   44.402   14.686   32.078
C   43.795   15.813   32.648
O   43.159   16.701   32.069
O   44.063   15.806   34.021
C   43.625   17.019   34.718
C   50.270   16.727   37.248
C   50.216   17.844   38.304
C   51.139   18.646   38.897
C   52.592   18.402   38.623
C   50.738   19.860   39.773
C   50.969   21.248   39.017
C   52.225   21.868   39.562
C   53.037   22.378   38.333
C   54.404   23.007   38.875
C   52.304   23.460   37.518
C   52.972   23.419   36.114
C   52.904   24.798   35.432
C   52.964   24.651   33.823
C   53.715   25.882   33.311
C   51.583   24.642   33.201
C   51.409   23.415   32.255
C   51.333   23.777   30.702
C   49.897   23.711   30.169
C   49.470   22.142   30.253
C   49.792   24.139   28.707
H   49.145   19.153   29.903
H   49.569   15.997   24.386
H   44.075   13.009   25.901
H   46.227   17.124   33.185
H   48.798   17.932   32.504
H   47.278   19.913   31.215
H   47.749   20.007   32.843
H   46.221   19.199   32.508
H   48.822   15.599   32.948
H   47.359   14.644   33.034
H   47.245   14.823   35.024
H   47.118   16.610   35.052
H   52.162   19.381   28.160
H   50.631   20.135   28.745
H   51.173   20.363   27.114
H   51.914   19.877   25.277
H   53.119   19.061   24.324
H   53.125   18.861   26.165
H   48.200   13.770   23.450
H   45.380   13.831   23.504
H   47.535   16.495   22.777
H   45.965   15.706   22.815
H   47.160   15.103   21.727
H   45.746   11.571   24.882
H   47.493   11.770   24.474
H   47.006   10.641   22.467
H   46.011   11.969   22.099
H   45.259   10.580   22.852
H   42.145   12.650   27.061
H   41.417   13.197   28.615
H   42.411   11.690   28.550
H   44.930   14.075   32.809
H   44.483   17.353   35.301
H   42.832   16.832   35.442
H   43.264   17.826   34.081
H   51.108   16.899   36.572
H   50.573   15.831   37.791
H   49.198   18.194   38.474
H   52.760   17.682   37.822
H   53.089   18.086   39.540
H   52.955   19.388   38.334
H   51.243   19.824   40.738
H   49.684   19.948   40.036
H   50.142   21.935   39.198
H   50.998   21.189   37.929
H   52.913   21.128   39.970
H   51.906   22.707   40.181
H   53.369   21.552   37.705
H   54.562   22.641   39.889
H   54.569   24.067   38.683
H   55.159   22.498   38.276
H   52.368   24.385   38.093
H   51.243   23.232   37.417
H   52.405   22.632   35.618
H   53.994   23.048   36.181
H   53.748   25.380   35.804
H   51.992   25.336   35.688
H   53.515   23.754   33.542
H   54.802   25.835   33.384
H   53.293   26.731   33.848
H   53.486   26.016   32.254
H   51.322   25.557   32.670
H   50.760   24.549   33.910
H   50.432   23.006   32.511
H   52.203   22.680   32.383
H   51.995   23.095   30.169
H   51.689   24.775   30.445
H   49.235   24.099   30.943
H   48.893   21.984   31.164
H   50.302   21.439   30.303
H   48.698   21.870   29.533
H   48.809   24.603   28.632
H   49.879   23.340   27.971
H   50.476   24.964   28.509

