%nproc=24
%mem=75GB
#p blyp/Def2SVP td=(nstates=5)

step_651_chromophore_4 TDDFT with blyp functional

0 1
Mg   9.287   3.834   27.731
C   10.410   2.183   30.664
C   7.704   6.002   29.832
C   7.965   5.154   24.926
C   10.171   0.959   25.869
N   9.080   4.015   29.990
C   9.742   3.369   31.003
C   9.458   3.938   32.389
C   8.481   5.128   32.059
C   8.386   5.038   30.560
C   7.120   4.992   32.680
C   10.721   4.350   33.124
C   10.561   5.016   34.438
C   10.803   4.138   35.656
O   11.742   3.343   35.799
O   9.926   4.429   36.662
N   8.178   5.455   27.421
C   7.476   6.180   28.413
C   6.850   7.353   27.760
C   6.948   7.111   26.297
C   7.839   5.910   26.108
C   6.040   8.425   28.523
C   6.361   7.863   25.099
O   6.397   7.501   23.947
C   5.609   9.101   25.431
N   9.045   3.140   25.769
C   8.596   3.929   24.732
C   8.497   3.114   23.396
C   9.539   2.022   23.681
C   9.567   2.018   25.211
C   7.047   2.629   23.108
C   10.908   2.357   23.080
C   11.413   1.558   21.874
N   10.179   1.868   28.097
C   10.479   0.790   27.261
C   11.150   -0.253   28.046
C   11.123   0.300   29.385
C   10.507   1.583   29.379
C   11.608   -1.571   27.699
C   11.491   -0.015   30.721
O   12.052   -1.054   31.161
C   11.138   1.186   31.599
C   10.115   0.708   32.607
O   9.008   0.345   32.387
O   10.765   0.702   33.850
C   10.164   -0.020   34.960
C   10.072   3.590   37.905
C   10.219   4.451   39.165
C   10.685   4.074   40.340
C   11.170   2.696   40.708
C   10.921   5.182   41.355
C   9.704   5.786   42.006
C   9.370   7.294   41.611
C   9.088   8.180   42.862
C   7.831   7.744   43.647
C   9.036   9.651   42.452
C   10.308   10.415   42.866
C   10.119   11.725   43.668
C   10.864   11.793   44.994
C   11.070   13.256   45.374
C   10.106   11.102   46.212
C   11.041   10.422   47.250
C   10.873   8.868   47.284
C   10.043   8.369   48.502
C   10.917   7.913   49.672
C   9.031   7.240   48.101
H   7.140   6.653   30.504
H   7.667   5.579   23.965
H   10.524   0.074   25.335
H   9.017   3.153   33.003
H   8.714   6.160   32.321
H   7.180   4.491   33.646
H   6.462   4.383   32.061
H   6.584   5.888   32.993
H   11.385   4.813   32.394
H   11.192   3.396   33.358
H   9.504   5.278   34.447
H   11.170   5.911   34.308
H   5.008   8.200   28.252
H   6.463   9.333   28.094
H   6.210   8.463   29.599
H   5.380   9.561   24.470
H   6.239   9.670   26.116
H   4.732   8.837   26.022
H   8.781   3.674   22.504
H   9.166   1.046   23.370
H   6.812   2.689   22.045
H   6.294   3.173   23.677
H   6.976   1.578   23.389
H   11.552   2.075   23.913
H   11.000   3.413   22.823
H   10.773   1.610   20.993
H   11.371   0.577   22.345
H   12.417   1.942   21.692
H   12.697   -1.546   27.705
H   11.127   -1.886   26.773
H   11.172   -2.227   28.454
H   11.922   1.731   32.126
H   10.746   -0.772   35.494
H   9.256   -0.494   34.588
H   9.976   0.891   35.529
H   10.953   2.948   37.929
H   9.182   2.986   38.081
H   9.847   5.464   39.013
H   11.100   1.887   39.981
H   10.586   2.359   41.564
H   12.235   2.772   40.931
H   11.615   5.895   40.909
H   11.388   4.789   42.258
H   9.790   5.730   43.091
H   8.863   5.204   41.631
H   8.550   7.423   40.904
H   10.281   7.683   41.157
H   9.957   7.879   43.447
H   6.906   7.711   43.071
H   7.682   8.460   44.455
H   7.962   6.743   44.058
H   8.098   10.055   42.832
H   8.906   9.783   41.378
H   10.822   10.683   41.942
H   11.029   9.682   43.225
H   9.071   11.978   43.827
H   10.481   12.538   43.038
H   11.812   11.256   45.007
H   11.835   13.689   44.729
H   11.405   13.222   46.411
H   10.129   13.803   45.432
H   9.410   10.388   45.771
H   9.616   11.875   46.803
H   10.831   10.742   48.270
H   12.040   10.729   46.939
H   11.875   8.440   47.329
H   10.411   8.468   46.382
H   9.416   9.194   48.840
H   11.025   6.841   49.511
H   10.363   8.043   50.601
H   11.834   8.501   49.694
H   7.971   7.469   48.209
H   9.139   6.392   48.777
H   9.181   6.949   47.061

