%nproc=24
%mem=50gb
#p ZINDO=(nstates=5)

step_601_chromophore_9 ZINDO

0 1
Mg   36.064   1.362   29.828
C   33.637   2.017   32.355
C   38.433   1.504   32.329
C   38.220   0.491   27.467
C   33.510   1.487   27.463
N   36.015   1.719   32.057
C   34.939   1.864   32.864
C   35.396   2.001   34.326
C   36.883   1.971   34.249
C   37.144   1.821   32.774
C   37.536   3.189   34.827
C   34.612   0.896   35.184
C   34.330   1.165   36.720
C   34.954   2.416   37.345
O   34.721   3.572   36.959
O   35.870   2.070   38.302
N   38.060   0.952   29.903
C   38.797   1.097   31.026
C   40.149   0.759   30.645
C   40.182   0.471   29.231
C   38.771   0.594   28.784
C   41.258   0.649   31.684
C   41.396   0.137   28.321
O   41.261   -0.037   27.076
C   42.817   -0.090   28.833
N   35.878   0.993   27.824
C   36.911   0.535   27.025
C   36.545   0.226   25.531
C   35.073   0.703   25.559
C   34.770   1.048   27.082
C   37.387   1.017   24.451
C   34.102   -0.303   24.783
C   33.427   -1.494   25.586
N   33.977   1.970   29.763
C   33.056   1.789   28.781
C   31.785   2.136   29.223
C   31.930   2.112   30.628
C   33.284   2.064   30.956
C   30.507   2.154   28.476
C   31.259   2.221   31.904
O   30.091   2.435   32.031
C   32.282   2.125   33.047
C   32.153   3.390   33.903
O   32.354   4.544   33.531
O   31.697   2.987   35.097
C   31.197   4.038   35.939
C   36.642   3.155   38.900
C   37.663   2.587   39.858
C   37.632   2.258   41.161
C   36.408   2.225   41.955
C   38.913   1.797   41.764
C   39.412   0.402   41.476
C   39.724   -0.442   42.794
C   41.272   -0.777   42.970
C   41.388   -2.224   43.444
C   42.030   0.230   43.924
C   43.322   0.608   43.200
C   44.189   1.547   44.036
C   44.506   2.921   43.240
C   45.961   3.404   43.564
C   43.536   4.014   43.590
C   43.474   5.119   42.596
C   43.765   6.572   43.236
C   43.713   7.733   42.256
C   45.041   8.501   42.277
C   42.520   8.645   42.518
H   39.233   1.452   33.071
H   38.842   0.116   26.651
H   32.779   1.617   26.662
H   35.008   2.975   34.622
H   37.300   1.140   34.818
H   36.808   3.989   34.689
H   38.441   3.329   34.236
H   37.833   2.925   35.842
H   35.223   -0.000   35.080
H   33.687   0.469   34.796
H   34.741   0.365   37.335
H   33.259   1.144   36.923
H   41.663   -0.363   31.718
H   41.041   0.885   32.726
H   42.086   1.311   31.435
H   42.856   -1.084   29.280
H   43.121   0.684   29.537
H   43.567   -0.004   28.046
H   36.604   -0.863   25.544
H   34.929   1.628   25.001
H   38.077   1.761   24.848
H   36.828   1.540   23.674
H   37.794   0.234   23.812
H   34.664   -0.769   23.974
H   33.235   0.152   24.306
H   32.353   -1.372   25.729
H   33.769   -1.579   26.617
H   33.603   -2.446   25.084
H   29.842   1.298   28.591
H   30.645   2.443   27.434
H   29.958   3.030   28.823
H   32.030   1.272   33.676
H   31.145   5.002   35.433
H   31.732   4.159   36.881
H   30.165   3.745   36.132
H   36.075   3.897   39.462
H   37.197   3.660   38.109
H   38.604   2.561   39.309
H   36.235   1.255   42.422
H   35.594   2.268   41.232
H   36.305   3.019   42.695
H   38.868   1.917   42.846
H   39.711   2.411   41.347
H   40.228   0.335   40.756
H   38.575   -0.104   40.993
H   39.158   -1.364   42.660
H   39.442   -0.068   43.778
H   41.736   -0.666   41.990
H   42.110   -2.458   44.225
H   41.742   -2.783   42.578
H   40.417   -2.637   43.717
H   42.245   -0.265   44.871
H   41.348   1.072   44.037
H   43.117   1.111   42.255
H   43.887   -0.320   43.115
H   45.103   1.044   44.353
H   43.682   1.885   44.940
H   44.406   2.678   42.182
H   46.643   2.554   43.572
H   45.986   3.894   44.537
H   46.397   4.168   42.922
H   43.903   4.399   44.542
H   42.548   3.620   43.830
H   42.494   5.094   42.121
H   44.324   4.947   41.935
H   44.705   6.339   43.737
H   42.953   6.729   43.946
H   43.699   7.348   41.237
H   45.791   7.715   42.357
H   45.229   9.113   43.159
H   45.094   9.011   41.315
H   41.789   8.370   43.279
H   41.909   8.787   41.627
H   42.937   9.550   42.960

