%nproc=24
%mem=50gb
#p ZINDO=(nstates=5)

step_401_chromophore_6 ZINDO

0 1
Mg   17.255   -1.677   27.087
C   16.248   0.106   29.887
C   19.309   -3.645   28.974
C   18.623   -2.819   24.160
C   15.254   0.511   25.139
N   17.875   -1.595   29.180
C   17.283   -0.864   30.164
C   17.696   -1.425   31.606
C   18.828   -2.504   31.272
C   18.678   -2.624   29.725
C   20.288   -2.147   31.809
C   16.537   -2.041   32.435
C   16.505   -1.704   33.941
C   17.649   -0.913   34.649
O   17.767   0.277   34.833
O   18.600   -1.719   35.208
N   18.534   -3.221   26.613
C   19.270   -3.866   27.560
C   19.914   -4.960   26.814
C   19.742   -4.726   25.414
C   18.906   -3.549   25.360
C   20.829   -5.906   27.538
C   20.239   -5.596   24.300
O   20.005   -5.398   23.093
C   20.974   -6.870   24.559
N   16.954   -1.303   25.014
C   17.783   -1.712   24.046
C   17.302   -1.207   22.648
C   16.099   -0.283   22.997
C   16.070   -0.371   24.474
C   18.377   -0.564   21.851
C   14.829   -0.745   22.273
C   14.491   -0.070   20.960
N   15.992   -0.013   27.435
C   15.204   0.726   26.495
C   14.567   1.785   27.213
C   14.875   1.517   28.599
C   15.767   0.447   28.643
C   13.695   2.927   26.642
C   14.772   2.070   29.994
O   14.157   3.019   30.431
C   15.589   1.128   30.872
C   16.611   1.935   31.543
O   17.729   2.262   31.072
O   16.070   2.347   32.809
C   16.987   3.278   33.567
C   19.674   -1.043   35.996
C   20.553   -2.161   36.403
C   20.819   -2.607   37.611
C   20.133   -2.044   38.882
C   21.885   -3.692   37.946
C   21.405   -5.212   37.961
C   21.693   -5.961   39.254
C   22.504   -7.235   38.926
C   21.825   -8.370   38.160
C   23.135   -7.862   40.237
C   24.668   -7.950   40.208
C   25.415   -8.204   41.599
C   26.495   -9.309   41.440
C   26.010   -10.587   42.099
C   27.792   -8.728   42.045
C   28.844   -8.570   40.900
C   29.326   -9.936   40.322
C   29.431   -10.146   38.724
C   30.884   -10.391   38.138
C   28.331   -11.143   38.134
H   19.924   -4.269   29.626
H   19.072   -3.211   23.245
H   14.580   1.166   24.584
H   18.092   -0.665   32.278
H   18.604   -3.454   31.755
H   21.022   -2.390   31.041
H   20.681   -2.621   32.708
H   20.250   -1.083   32.042
H   16.477   -3.129   32.398
H   15.570   -1.603   32.185
H   16.233   -2.550   34.572
H   15.646   -1.044   34.060
H   20.454   -6.927   27.469
H   20.701   -5.665   28.594
H   21.871   -5.896   27.222
H   21.780   -6.686   25.269
H   21.479   -7.200   23.651
H   20.310   -7.629   24.974
H   17.039   -2.156   22.181
H   16.398   0.744   22.788
H   18.849   -1.187   21.091
H   19.200   -0.254   22.496
H   17.874   0.211   21.273
H   13.960   -0.631   22.921
H   14.927   -1.828   22.198
H   15.086   0.842   20.917
H   13.434   0.190   21.015
H   14.666   -0.729   20.110
H   13.168   2.629   25.736
H   14.282   3.835   26.497
H   12.932   3.296   27.328
H   14.965   0.592   31.586
H   17.768   2.673   34.027
H   16.375   3.698   34.365
H   17.311   4.127   32.965
H   19.230   -0.484   36.821
H   20.186   -0.243   35.461
H   21.062   -2.584   35.537
H   19.343   -1.314   38.704
H   20.869   -1.628   39.570
H   19.708   -2.859   39.468
H   22.402   -3.563   38.897
H   22.607   -3.645   37.131
H   21.917   -5.665   37.112
H   20.360   -5.379   37.701
H   20.714   -6.256   39.632
H   22.157   -5.453   40.099
H   23.344   -6.820   38.369
H   21.453   -9.129   38.848
H   22.425   -8.824   37.370
H   20.941   -8.048   37.610
H   22.698   -8.770   40.652
H   22.898   -7.219   41.084
H   25.063   -7.086   39.674
H   24.893   -8.739   39.491
H   24.634   -8.616   42.236
H   25.746   -7.237   41.978
H   26.605   -9.478   40.369
H   25.919   -10.488   43.181
H   26.712   -11.379   41.838
H   25.071   -10.852   41.613
H   28.314   -9.360   42.764
H   27.669   -7.770   42.550
H   29.760   -8.064   41.205
H   28.348   -7.882   40.215
H   28.814   -10.711   40.892
H   30.332   -9.918   40.743
H   29.231   -9.188   38.242
H   31.586   -10.554   38.956
H   31.276   -9.529   37.598
H   30.822   -11.219   37.432
H   27.737   -10.639   37.372
H   27.553   -11.500   38.809
H   28.812   -11.979   37.627

