%nproc=24
%mem=50gb
#p ZINDO=(nstates=5)

step_1_chromophore_16 ZINDO

0 1
Mg   41.128   41.857   26.986
C   40.127   44.179   29.640
C   41.310   39.410   29.487
C   42.362   39.821   24.759
C   40.706   44.363   24.683
N   40.967   41.850   29.292
C   40.421   42.875   30.173
C   40.337   42.444   31.653
C   40.946   40.930   31.521
C   41.116   40.672   30.011
C   42.224   40.714   32.308
C   38.879   42.588   32.185
C   38.608   41.927   33.503
C   37.806   42.656   34.558
O   36.636   42.977   34.464
O   38.578   42.832   35.656
N   41.790   39.861   27.081
C   41.782   39.010   28.192
C   42.266   37.687   27.802
C   42.584   37.776   26.385
C   42.256   39.192   25.977
C   42.314   36.430   28.746
C   43.165   36.784   25.443
O   43.357   36.978   24.250
C   43.446   35.412   25.898
N   41.390   42.021   25.045
C   42.033   41.096   24.330
C   42.189   41.492   22.843
C   41.281   42.702   22.769
C   41.150   43.123   24.284
C   43.629   41.801   22.450
C   39.923   42.668   22.117
C   38.933   41.740   22.788
N   40.641   43.879   27.096
C   40.411   44.754   26.019
C   40.010   46.038   26.539
C   39.836   45.769   27.921
C   40.241   44.456   28.228
C   39.646   47.283   25.784
C   39.341   46.432   29.167
O   38.790   47.540   29.341
C   39.558   45.418   30.288
C   40.418   46.035   31.393
O   41.619   46.436   31.367
O   39.694   45.959   32.546
C   40.382   46.431   33.769
C   37.972   43.741   36.706
C   37.574   42.791   37.816
C   37.692   43.059   39.146
C   38.107   44.419   39.656
C   37.270   41.983   40.204
C   38.272   40.807   40.183
C   37.583   39.425   40.324
C   38.098   38.728   41.579
C   37.744   37.244   41.398
C   37.615   39.345   42.960
C   38.697   40.124   43.707
C   39.469   39.301   44.735
C   38.609   38.788   45.914
C   39.059   39.431   47.201
C   38.555   37.190   45.934
C   37.278   36.605   46.585
C   36.291   36.027   45.586
C   34.878   36.459   45.868
C   34.301   37.107   44.649
C   34.079   35.174   46.352
H   41.170   38.614   30.220
H   42.832   39.178   24.012
H   40.576   45.214   24.011
H   40.932   43.179   32.195
H   40.172   40.215   31.800
H   42.060   39.902   33.017
H   42.405   41.638   32.856
H   43.161   40.691   31.752
H   38.237   42.280   31.359
H   38.658   43.649   32.302
H   39.473   41.654   34.107
H   37.991   41.044   33.339
H   41.633   35.714   28.285
H   41.971   36.635   29.760
H   43.348   36.085   28.737
H   43.925   35.361   26.876
H   44.125   35.027   25.138
H   42.456   34.986   26.058
H   41.847   40.643   22.251
H   41.737   43.523   22.215
H   43.814   41.381   21.462
H   44.334   41.357   23.152
H   43.755   42.873   22.294
H   40.067   42.457   21.057
H   39.412   43.624   22.230
H   38.398   41.123   22.067
H   38.142   42.276   23.313
H   39.380   41.041   23.495
H   38.670   47.638   26.114
H   39.600   47.281   24.695
H   40.393   48.035   26.039
H   38.593   45.219   30.755
H   40.755   45.577   34.334
H   39.563   47.000   34.209
H   41.153   47.172   33.554
H   37.073   44.294   36.435
H   38.636   44.543   37.026
H   37.258   41.783   37.548
H   37.852   45.182   38.920
H   39.181   44.437   39.841
H   37.575   44.600   40.590
H   36.238   41.705   39.993
H   37.241   42.487   41.171
H   38.955   40.972   41.016
H   38.875   40.753   39.276
H   37.849   38.959   39.376
H   36.499   39.533   40.369
H   39.186   38.801   41.592
H   36.655   37.230   41.443
H   38.130   36.814   42.322
H   38.217   36.814   40.516
H   37.123   38.539   43.505
H   36.764   39.999   42.768
H   38.214   40.962   44.210
H   39.396   40.535   42.980
H   40.363   39.853   45.027
H   39.878   38.503   44.115
H   37.558   38.994   45.710
H   39.366   38.678   47.927
H   38.265   40.061   47.602
H   39.869   40.121   46.963
H   39.413   36.793   46.475
H   38.617   36.954   44.871
H   36.802   37.453   47.078
H   37.413   35.823   47.332
H   36.381   34.948   45.718
H   36.520   36.229   44.540
H   34.716   37.315   46.523
H   34.801   38.012   44.303
H   33.254   37.348   44.831
H   34.363   36.432   43.796
H   33.919   34.388   45.614
H   33.095   35.481   46.706
H   34.472   34.646   47.221

