%nproc=24
%mem=75GB
#p wB97XD/Def2SVP td=(nstates=5)

step_951_chromophore_24 TDDFT with wB97XD functional

0 1
Mg   -1.242   44.236   25.024
C   1.348   43.582   27.299
C   -3.385   43.524   27.711
C   -3.829   44.441   22.904
C   1.010   44.375   22.476
N   -1.024   43.240   27.252
C   0.151   43.398   27.960
C   -0.078   43.322   29.478
C   -1.629   42.990   29.481
C   -2.109   43.293   28.073
C   -1.896   41.553   30.033
C   0.335   44.671   30.193
C   0.273   44.878   31.734
C   0.164   43.663   32.598
O   0.939   42.750   32.553
O   -0.861   43.776   33.499
N   -3.317   43.977   25.277
C   -3.993   43.849   26.498
C   -5.421   44.180   26.274
C   -5.615   44.382   24.883
C   -4.220   44.248   24.279
C   -6.399   44.166   27.473
C   -6.898   44.725   24.150
O   -6.967   45.141   22.976
C   -8.183   44.447   24.878
N   -1.407   44.203   23.008
C   -2.600   44.473   22.316
C   -2.304   44.505   20.787
C   -0.749   44.854   20.787
C   -0.319   44.428   22.207
C   -2.706   43.126   20.188
C   -0.474   46.328   20.600
C   0.019   46.836   19.178
N   0.734   44.062   24.850
C   1.602   44.111   23.763
C   2.962   44.018   24.108
C   2.874   43.789   25.505
C   1.568   43.866   25.923
C   4.137   44.215   23.249
C   3.714   43.656   26.727
O   4.893   43.794   26.834
C   2.751   43.557   27.970
C   3.096   42.260   28.635
O   2.895   41.154   28.216
O   3.666   42.543   29.802
C   3.790   41.290   30.647
C   -1.277   42.556   34.236
C   -2.772   42.657   34.411
C   -3.518   41.955   35.303
C   -2.964   40.839   36.172
C   -5.042   41.948   35.129
C   -5.782   42.499   36.370
C   -5.951   44.020   36.560
C   -7.056   44.344   37.605
C   -6.864   45.706   38.253
C   -8.518   44.370   37.007
C   -9.432   43.183   37.341
C   -9.882   42.298   36.126
C   -9.776   40.770   36.368
C   -9.065   40.084   35.198
C   -11.166   40.117   36.551
C   -11.763   40.435   37.929
C   -11.571   39.309   38.888
C   -12.929   38.644   39.348
C   -13.502   39.548   40.457
C   -12.825   37.154   39.791
H   -4.044   43.365   28.567
H   -4.653   44.738   22.252
H   1.708   44.450   21.640
H   0.620   42.534   29.761
H   -2.139   43.776   30.038
H   -2.220   40.908   29.217
H   -2.626   41.551   30.842
H   -1.020   41.065   30.462
H   -0.368   45.412   29.814
H   1.305   45.015   29.835
H   -0.573   45.501   32.025
H   1.188   45.377   32.055
H   -7.260   43.523   27.288
H   -6.796   45.169   27.628
H   -5.994   43.842   28.432
H   -8.406   45.161   25.671
H   -8.249   43.368   25.013
H   -8.953   44.654   24.134
H   -2.899   45.289   20.319
H   -0.178   44.336   20.015
H   -3.226   43.389   19.267
H   -3.357   42.561   20.855
H   -1.852   42.493   19.949
H   0.230   46.600   21.387
H   -1.395   46.855   20.848
H   -0.626   47.634   18.809
H   -0.019   46.053   18.421
H   1.059   47.152   19.101
H   3.797   44.583   22.281
H   4.755   43.325   23.135
H   4.842   44.977   23.580
H   2.947   44.422   28.603
H   4.667   40.668   30.468
H   2.951   40.599   30.734
H   3.967   41.668   31.655
H   -0.677   42.448   35.139
H   -1.076   41.604   33.745
H   -3.275   43.259   33.655
H   -2.256   41.361   36.816
H   -2.439   40.214   35.450
H   -3.720   40.312   36.754
H   -5.362   40.906   35.113
H   -5.360   42.473   34.228
H   -5.096   42.176   37.152
H   -6.790   42.092   36.450
H   -6.202   44.457   35.593
H   -4.995   44.447   36.863
H   -7.127   43.605   38.403
H   -7.750   46.093   38.755
H   -6.723   46.430   37.451
H   -6.029   45.663   38.953
H   -8.577   44.555   35.934
H   -9.096   45.241   37.316
H   -10.302   43.443   37.945
H   -8.857   42.525   37.994
H   -9.290   42.575   35.253
H   -10.917   42.615   36.002
H   -9.112   40.435   37.165
H   -9.750   40.093   34.350
H   -8.724   39.082   35.460
H   -8.170   40.637   34.915
H   -11.168   39.039   36.393
H   -11.942   40.545   35.916
H   -12.753   40.867   37.783
H   -11.175   41.252   38.346
H   -11.096   39.670   39.801
H   -11.015   38.486   38.438
H   -13.675   38.608   38.554
H   -13.603   38.991   41.389
H   -14.499   39.848   40.131
H   -12.987   40.492   40.636
H   -12.636   37.029   40.857
H   -12.043   36.624   39.247
H   -13.771   36.647   39.598

