%nproc=24
%mem=75GB
#p cam-b3lyp/Def2SVP td=(nstates=5)

step_951_chromophore_15 TDDFT with cam-b3lyp functional

0 1
Mg   46.515   35.002   28.381
C   45.025   32.906   30.692
C   46.352   37.511   30.712
C   47.294   37.320   26.011
C   45.889   32.621   25.863
N   45.837   35.180   30.526
C   45.436   34.105   31.271
C   45.456   34.521   32.761
C   45.329   36.045   32.581
C   45.897   36.304   31.173
C   43.867   36.549   32.760
C   46.790   34.024   33.419
C   46.844   33.934   34.922
C   45.726   34.731   35.829
O   44.620   34.308   36.195
O   46.373   35.944   36.255
N   47.043   37.029   28.414
C   46.872   37.839   29.483
C   47.507   39.141   29.154
C   47.953   39.119   27.795
C   47.376   37.768   27.298
C   47.707   40.212   30.161
C   48.591   40.175   26.927
O   49.046   39.887   25.839
C   48.925   41.583   27.540
N   46.784   34.919   26.250
C   46.943   36.036   25.448
C   47.000   35.668   23.937
C   46.537   34.154   23.988
C   46.529   33.832   25.448
C   46.165   36.649   23.063
C   47.413   33.222   23.158
C   46.796   32.261   22.237
N   45.645   33.148   28.236
C   45.524   32.310   27.183
C   44.836   31.069   27.687
C   44.597   31.306   29.059
C   45.108   32.553   29.344
C   44.456   29.811   27.030
C   44.014   30.738   30.216
O   43.421   29.684   30.383
C   44.156   31.833   31.310
C   44.747   31.250   32.520
O   45.784   30.608   32.579
O   43.877   31.530   33.586
C   44.413   31.279   34.859
C   45.561   36.743   37.098
C   46.420   37.853   37.713
C   46.053   38.631   38.699
C   44.601   38.646   39.189
C   46.913   39.723   39.094
C   46.816   41.017   38.184
C   47.504   42.302   38.848
C   48.766   42.876   38.170
C   50.001   41.969   38.228
C   49.022   44.310   38.753
C   48.597   45.547   37.955
C   48.576   46.895   38.626
C   47.087   47.479   38.646
C   47.177   49.023   39.053
C   46.046   46.698   39.565
C   44.619   47.330   39.548
C   43.440   46.224   39.555
C   42.075   46.733   39.126
C   41.316   47.341   40.377
C   41.288   45.742   38.219
H   46.304   38.162   31.588
H   47.576   37.984   25.192
H   45.611   31.993   25.014
H   44.588   34.126   33.288
H   45.960   36.534   33.324
H   43.388   36.786   31.810
H   43.926   37.362   33.483
H   43.253   35.816   33.284
H   47.558   34.674   32.998
H   46.957   33.086   32.890
H   47.846   34.292   35.161
H   46.831   32.883   35.211
H   47.306   41.166   29.819
H   48.753   40.271   30.461
H   47.173   40.016   31.092
H   47.968   41.961   27.901
H   49.197   42.109   26.625
H   49.705   41.632   28.300
H   47.978   35.963   23.559
H   45.516   34.059   23.619
H   46.877   37.279   22.530
H   45.609   37.374   23.657
H   45.562   36.124   22.321
H   48.009   32.625   23.848
H   48.135   33.744   22.530
H   45.708   32.327   22.273
H   46.942   31.227   22.550
H   47.003   32.347   21.170
H   43.613   30.009   26.368
H   44.153   29.202   27.882
H   45.167   29.369   26.332
H   43.165   32.186   31.596
H   43.882   31.945   35.539
H   45.488   31.363   35.020
H   43.982   30.312   35.118
H   45.100   36.115   37.861
H   44.792   37.195   36.473
H   47.472   37.845   37.429
H   44.182   39.522   38.694
H   44.494   38.603   40.273
H   44.065   37.775   38.811
H   47.937   39.352   39.038
H   46.641   39.925   40.130
H   45.815   41.275   37.837
H   47.387   40.799   37.282
H   47.683   41.915   39.851
H   46.783   43.070   39.130
H   48.634   42.970   37.092
H   50.275   41.696   37.209
H   49.788   41.071   38.809
H   50.762   42.550   38.748
H   50.077   44.407   39.010
H   48.487   44.356   39.702
H   47.617   45.287   37.554
H   49.335   45.495   37.155
H   49.122   47.615   38.016
H   48.883   46.948   39.671
H   46.694   47.485   37.629
H   46.249   49.405   39.478
H   47.543   49.657   38.246
H   47.972   49.155   39.787
H   46.480   46.485   40.542
H   45.901   45.742   39.061
H   44.468   47.984   38.690
H   44.555   47.864   40.496
H   43.449   45.714   40.518
H   43.700   45.410   38.878
H   42.243   47.626   38.525
H   41.072   48.380   40.155
H   41.841   47.360   41.332
H   40.310   46.945   40.517
H   41.612   45.962   37.201
H   40.218   45.953   38.202
H   41.468   44.702   38.489

