%nproc=24
%mem=75GB
#p blyp/Def2SVP td=(nstates=5)

step_601_chromophore_12 TDDFT with blyp functional

0 1
Mg   47.117   15.289   28.535
C   44.821   15.224   31.390
C   48.929   17.663   30.413
C   49.184   15.605   26.094
C   44.726   13.636   26.685
N   46.758   16.452   30.607
C   45.910   16.070   31.639
C   46.239   16.800   32.960
C   47.313   17.796   32.449
C   47.761   17.252   31.093
C   46.836   19.283   32.434
C   46.616   15.921   34.170
C   46.857   16.701   35.480
C   47.961   16.218   36.404
O   48.601   15.173   36.435
O   47.978   17.055   37.480
N   48.886   16.417   28.332
C   49.514   17.184   29.257
C   50.846   17.429   28.729
C   50.905   16.927   27.418
C   49.683   16.279   27.209
C   51.851   18.372   29.406
C   52.045   16.987   26.452
O   51.934   16.586   25.287
C   53.310   17.631   26.907
N   46.823   14.922   26.530
C   47.933   15.080   25.730
C   47.682   14.401   24.367
C   46.379   13.638   24.677
C   45.922   14.053   26.042
C   47.657   15.258   23.093
C   46.605   12.102   24.759
C   46.450   11.214   23.430
N   45.138   14.551   28.901
C   44.371   13.808   28.078
C   43.263   13.191   28.920
C   43.430   13.800   30.139
C   44.547   14.575   30.140
C   42.149   12.367   28.362
C   42.735   13.957   31.476
O   41.651   13.441   31.871
C   43.743   14.766   32.377
C   43.079   15.857   33.132
O   42.593   16.835   32.591
O   43.061   15.622   34.453
C   42.069   16.424   35.166
C   49.117   16.954   38.448
C   49.391   18.317   39.114
C   50.211   18.459   40.145
C   50.981   17.381   40.833
C   50.497   19.891   40.686
C   51.077   20.967   39.705
C   51.796   22.168   40.458
C   52.941   22.728   39.630
C   54.022   23.304   40.505
C   52.394   23.893   38.692
C   52.355   23.546   37.178
C   52.532   24.782   36.139
C   53.201   24.255   34.748
C   54.657   24.621   34.723
C   52.431   24.985   33.616
C   51.252   24.143   33.071
C   51.365   23.747   31.538
C   49.974   23.582   30.979
C   49.356   22.149   31.297
C   49.892   24.111   29.507
H   49.558   18.328   31.010
H   49.835   15.510   25.222
H   44.102   12.955   26.103
H   45.294   17.293   33.191
H   48.158   17.909   33.128
H   46.931   19.669   31.419
H   47.428   19.810   33.182
H   45.800   19.460   32.724
H   47.366   15.162   33.948
H   45.836   15.236   34.504
H   46.021   16.630   36.175
H   46.979   17.737   35.162
H   51.923   19.314   28.863
H   52.805   17.878   29.592
H   51.602   18.604   30.442
H   53.986   17.528   26.058
H   53.766   17.152   27.774
H   53.126   18.668   27.186
H   48.522   13.747   24.134
H   45.584   13.808   23.952
H   46.775   14.929   22.544
H   48.494   15.097   22.413
H   47.482   16.326   23.226
H   45.970   11.704   25.551
H   47.575   11.993   25.245
H   46.144   11.758   22.536
H   45.775   10.381   23.628
H   47.419   10.721   23.352
H   42.119   11.531   29.060
H   42.450   11.916   27.416
H   41.223   12.933   28.260
H   44.182   14.017   33.036
H   41.922   15.845   36.078
H   41.166   16.600   34.581
H   42.538   17.344   35.517
H   50.053   16.699   37.951
H   48.969   16.219   39.238
H   48.844   19.231   38.884
H   51.196   17.557   41.887
H   51.923   17.210   40.313
H   50.401   16.462   40.738
H   51.058   19.984   41.616
H   49.500   20.158   41.035
H   50.194   21.408   39.243
H   51.770   20.400   39.083
H   52.010   21.886   41.489
H   51.076   22.979   40.563
H   53.368   22.000   38.941
H   53.993   24.390   40.591
H   54.968   23.043   40.030
H   54.124   22.805   41.469
H   53.006   24.781   38.846
H   51.396   24.240   38.960
H   51.304   23.273   37.091
H   52.821   22.636   36.802
H   53.303   25.410   36.587
H   51.550   25.250   36.065
H   53.049   23.191   34.567
H   54.866   25.655   34.999
H   54.970   24.501   33.686
H   55.270   23.884   35.242
H   53.101   25.395   32.860
H   51.875   25.750   34.156
H   50.353   24.726   33.274
H   51.052   23.291   33.721
H   51.835   22.771   31.409
H   52.015   24.351   30.905
H   49.327   24.271   31.522
H   48.523   22.254   31.993
H   50.066   21.550   31.868
H   48.996   21.656   30.394
H   50.850   24.425   29.092
H   49.179   24.927   29.628
H   49.439   23.353   28.868

