%nproc=24
%mem=75GB
#p PBE1PBE/Def2SVP td=(nstates=5)

step_551_chromophore_25 TDDFT with PBE1PBE functional

0 1
Mg   -1.993   34.241   27.503
C   -2.949   32.215   30.238
C   -0.718   36.515   29.880
C   -1.166   36.094   24.938
C   -3.761   32.105   25.385
N   -1.895   34.396   29.805
C   -2.143   33.314   30.649
C   -1.668   33.595   31.987
C   -1.138   35.062   31.896
C   -1.263   35.389   30.458
C   -1.705   36.112   32.888
C   -0.752   32.631   32.684
C   -0.983   32.350   34.181
C   0.198   32.740   35.152
O   1.342   32.641   34.797
O   -0.214   33.209   36.337
N   -1.091   36.055   27.425
C   -0.583   36.798   28.448
C   0.157   37.902   27.879
C   -0.014   37.876   26.455
C   -0.854   36.658   26.245
C   0.943   38.982   28.708
C   0.499   38.809   25.411
O   0.082   38.787   24.263
C   1.448   39.948   25.691
N   -2.400   34.202   25.462
C   -1.831   34.997   24.535
C   -2.304   34.640   23.064
C   -2.984   33.285   23.249
C   -3.126   33.238   24.807
C   -3.217   35.719   22.390
C   -2.156   32.118   22.626
C   -0.830   31.701   23.348
N   -3.110   32.494   27.736
C   -3.822   31.750   26.752
C   -4.373   30.617   27.447
C   -4.111   30.844   28.833
C   -3.349   31.993   28.951
C   -5.209   29.579   26.870
C   -4.355   30.306   30.243
O   -5.020   29.383   30.679
C   -3.611   31.214   31.207
C   -4.599   31.840   32.105
O   -5.309   32.764   31.714
O   -4.503   31.465   33.402
C   -5.380   32.149   34.408
C   0.848   33.788   37.124
C   0.117   34.676   38.082
C   -0.527   34.362   39.271
C   -0.553   32.915   39.774
C   -1.254   35.320   40.197
C   -0.440   35.974   41.378
C   -1.013   37.468   41.776
C   -1.277   37.729   43.362
C   -1.643   39.244   43.583
C   -0.044   37.326   44.296
C   -0.505   36.693   45.667
C   0.478   36.955   46.798
C   1.333   35.782   47.053
C   0.765   35.144   48.409
C   2.781   36.094   47.165
C   3.699   34.917   46.828
C   4.802   35.175   45.752
C   4.632   34.393   44.451
C   6.007   34.384   43.681
C   3.476   34.735   43.555
H   -0.176   37.152   30.583
H   -0.780   36.734   24.142
H   -4.282   31.429   24.703
H   -2.582   33.764   32.556
H   -0.058   34.987   32.024
H   -2.524   35.681   33.464
H   -2.157   36.900   32.286
H   -0.957   36.584   33.524
H   0.300   32.783   32.439
H   -1.010   31.711   32.159
H   -1.149   31.275   34.244
H   -1.919   32.758   34.564
H   1.054   38.653   29.741
H   0.356   39.895   28.618
H   1.937   39.060   28.266
H   1.697   40.454   24.759
H   2.349   39.501   26.111
H   1.035   40.610   26.453
H   -1.372   34.590   22.501
H   -3.955   33.370   22.761
H   -4.257   35.399   22.457
H   -2.960   36.048   21.383
H   -3.145   36.646   22.958
H   -2.035   32.131   21.543
H   -2.800   31.250   22.768
H   -0.056   31.634   22.584
H   -0.934   30.682   23.720
H   -0.531   32.429   24.102
H   -4.638   28.653   26.936
H   -5.617   29.712   25.868
H   -6.120   29.629   27.466
H   -2.930   30.729   31.905
H   -4.721   32.922   34.803
H   -5.443   31.475   35.263
H   -6.353   32.485   34.049
H   1.558   34.379   36.546
H   1.468   33.122   37.724
H   0.266   35.742   37.908
H   -0.324   32.207   38.977
H   -1.544   32.575   40.072
H   0.217   32.681   40.510
H   -2.259   34.935   40.372
H   -1.533   36.190   39.602
H   0.612   36.061   41.107
H   -0.534   35.300   42.230
H   -2.028   37.495   41.378
H   -0.341   38.173   41.288
H   -2.116   37.094   43.645
H   -0.852   39.758   44.129
H   -2.525   39.227   44.223
H   -1.895   39.738   42.645
H   0.689   38.122   44.426
H   0.571   36.617   43.743
H   -0.579   35.636   45.413
H   -1.499   37.028   45.965
H   -0.118   37.254   47.660
H   1.007   37.895   46.642
H   1.181   35.010   46.299
H   1.487   34.333   48.504
H   -0.274   34.827   48.317
H   0.744   35.873   49.218
H   2.954   36.383   48.202
H   3.005   36.990   46.585
H   3.042   34.062   46.673
H   4.246   34.594   47.714
H   5.650   34.862   46.361
H   4.959   36.189   45.384
H   4.496   33.379   44.826
H   6.200   35.438   43.479
H   5.899   33.825   42.752
H   6.848   33.950   44.222
H   3.723   35.249   42.626
H   2.795   35.329   44.164
H   2.956   33.822   43.265

