%nproc=24
%mem=75GB
#p PBE1PBE/Def2SVP td=(nstates=5)

step_1201_chromophore_23 TDDFT with PBE1PBE functional

0 1
Mg   -9.485   41.177   42.429
C   -8.555   38.054   41.178
C   -7.117   42.617   40.369
C   -10.863   44.050   43.157
C   -12.279   39.545   43.666
N   -8.040   40.517   40.977
C   -7.766   39.187   40.736
C   -6.450   39.004   40.011
C   -5.919   40.460   39.867
C   -7.091   41.260   40.519
C   -4.546   40.754   40.587
C   -6.612   38.316   38.651
C   -5.977   36.932   38.432
C   -4.891   36.739   37.390
O   -3.736   37.138   37.443
O   -5.338   36.264   36.147
N   -9.039   43.124   41.881
C   -8.013   43.469   41.066
C   -7.932   44.909   41.142
C   -8.999   45.389   41.923
C   -9.723   44.177   42.357
C   -6.945   45.781   40.351
C   -9.410   46.882   42.188
O   -8.585   47.790   41.892
C   -10.716   47.294   42.721
N   -11.276   41.716   43.207
C   -11.592   42.985   43.524
C   -12.981   43.129   44.217
C   -13.427   41.591   44.231
C   -12.279   40.929   43.675
C   -12.862   43.681   45.658
C   -14.695   41.252   43.354
C   -15.480   40.076   43.977
N   -10.258   39.182   42.550
C   -11.350   38.685   43.145
C   -11.416   37.285   43.081
C   -10.290   36.988   42.230
C   -9.695   38.177   41.966
C   -12.484   36.188   43.615
C   -9.631   35.815   41.564
O   -9.906   34.605   41.605
C   -8.373   36.453   40.896
C   -7.216   35.782   41.543
O   -6.593   36.254   42.432
O   -6.922   34.673   40.770
C   -5.820   33.825   41.297
C   -4.385   36.203   35.071
C   -5.161   36.250   33.809
C   -5.780   37.353   33.324
C   -5.853   38.763   34.048
C   -6.705   37.344   32.153
C   -5.935   37.763   30.899
C   -5.850   36.641   29.806
C   -6.410   37.051   28.451
C   -5.627   36.474   27.206
C   -7.984   36.901   28.297
C   -8.690   38.244   28.102
C   -10.101   38.438   28.637
C   -10.129   39.334   29.936
C   -11.287   38.908   30.857
C   -10.361   40.808   29.539
C   -9.915   41.867   30.608
C   -8.915   42.880   29.962
C   -7.451   42.319   29.753
C   -6.574   42.699   30.936
C   -6.774   42.818   28.388
H   -6.292   43.125   39.865
H   -11.347   44.902   43.640
H   -13.135   38.969   44.023
H   -5.762   38.499   40.689
H   -5.897   40.754   38.818
H   -3.765   40.004   40.461
H   -4.613   40.960   41.655
H   -4.200   41.615   40.014
H   -6.064   38.899   37.911
H   -7.620   38.351   38.238
H   -6.736   36.203   38.147
H   -5.627   36.496   39.368
H   -6.116   45.287   39.844
H   -6.484   46.395   41.124
H   -7.447   46.407   39.612
H   -10.696   47.104   43.794
H   -11.498   46.936   42.052
H   -10.802   48.378   42.640
H   -13.703   43.672   43.608
H   -13.712   41.138   45.181
H   -13.168   42.894   46.347
H   -13.601   44.482   45.636
H   -11.963   44.259   45.869
H   -14.298   41.093   42.351
H   -15.379   42.087   43.202
H   -15.261   39.840   45.018
H   -15.391   39.195   43.342
H   -16.527   40.376   43.943
H   -13.506   36.311   43.257
H   -12.472   36.342   44.694
H   -12.047   35.215   43.390
H   -8.305   36.236   39.829
H   -5.203   34.217   42.105
H   -5.218   33.415   40.486
H   -6.483   33.002   41.566
H   -3.822   35.273   35.155
H   -3.727   37.072   35.054
H   -5.420   35.329   33.286
H   -5.939   39.633   33.397
H   -5.033   38.901   34.752
H   -6.782   38.812   34.617
H   -7.451   38.126   32.298
H   -7.274   36.421   32.041
H   -4.942   37.894   31.328
H   -6.267   38.710   30.474
H   -6.373   35.724   30.079
H   -4.795   36.365   29.795
H   -6.145   38.106   28.382
H   -6.359   36.472   26.398
H   -5.127   35.522   27.387
H   -4.785   37.136   27.005
H   -8.469   36.429   29.151
H   -8.218   36.254   27.452
H   -8.688   38.612   27.077
H   -8.045   38.933   28.647
H   -10.540   37.465   28.857
H   -10.696   38.844   27.819
H   -9.181   39.294   30.474
H   -11.927   38.119   30.462
H   -12.022   39.699   31.003
H   -10.776   38.744   31.806
H   -11.394   40.942   29.220
H   -9.841   40.959   28.593
H   -9.492   41.383   31.488
H   -10.866   42.357   30.815
H   -9.013   43.867   30.414
H   -9.253   43.143   28.959
H   -7.415   41.240   29.603
H   -6.057   41.774   31.192
H   -7.174   42.999   31.795
H   -5.766   43.355   30.612
H   -5.701   42.627   28.367
H   -6.966   43.884   28.260
H   -7.283   42.305   27.573

