%nproc=24
%mem=50gb
#p ZINDO=(nstates=5)

step_1151_chromophore_16 ZINDO

0 1
Mg   40.822   42.343   27.191
C   39.909   44.694   29.700
C   41.527   40.134   29.723
C   41.686   40.123   24.847
C   39.934   44.693   24.843
N   40.893   42.538   29.430
C   40.328   43.482   30.259
C   40.341   43.119   31.798
C   40.929   41.687   31.709
C   41.175   41.414   30.208
C   42.159   41.446   32.567
C   38.927   43.174   32.361
C   38.789   42.582   33.824
C   38.354   43.589   34.935
O   37.523   44.438   34.869
O   38.955   43.223   36.118
N   41.615   40.392   27.328
C   41.819   39.672   28.438
C   42.331   38.348   28.065
C   42.158   38.227   26.623
C   41.848   39.641   26.189
C   42.562   37.263   29.001
C   42.025   37.005   25.708
O   41.837   37.125   24.467
C   41.924   35.653   26.328
N   40.758   42.425   25.158
C   41.194   41.394   24.410
C   40.925   41.804   22.852
C   40.034   43.124   22.972
C   40.290   43.452   24.399
C   42.294   42.070   22.123
C   38.467   42.882   22.784
C   37.859   41.595   23.396
N   40.261   44.406   27.224
C   39.964   45.184   26.136
C   39.537   46.502   26.597
C   39.489   46.382   28.003
C   39.951   45.055   28.277
C   39.175   47.668   25.639
C   39.102   47.027   29.247
O   38.536   48.084   29.545
C   39.242   45.848   30.337
C   40.152   46.504   31.358
O   41.341   46.740   31.249
O   39.468   46.853   32.522
C   40.160   47.315   33.689
C   38.604   43.959   37.332
C   38.924   42.889   38.360
C   39.150   43.025   39.666
C   39.215   44.317   40.402
C   39.374   41.764   40.514
C   38.458   41.490   41.601
C   38.246   39.963   41.904
C   38.859   39.559   43.302
C   40.359   39.018   43.213
C   37.889   38.565   43.970
C   37.121   39.309   45.016
C   37.859   39.630   46.382
C   36.823   39.371   47.555
C   37.131   40.398   48.732
C   36.946   37.889   48.051
C   35.489   37.195   48.116
C   35.509   35.966   47.161
C   34.667   36.127   45.885
C   35.171   35.364   44.683
C   33.178   35.806   46.093
H   41.623   39.438   30.559
H   41.957   39.421   24.055
H   39.487   45.296   24.051
H   41.085   43.748   32.288
H   40.125   40.981   31.915
H   42.837   40.755   32.066
H   41.889   40.981   33.515
H   42.834   42.291   32.705
H   38.132   42.782   31.728
H   38.693   44.236   32.434
H   39.803   42.317   34.122
H   38.235   41.644   33.791
H   43.494   36.758   28.748
H   41.751   36.535   29.007
H   42.696   37.623   30.022
H   41.502   34.892   25.672
H   41.235   35.960   27.115
H   42.846   35.349   26.823
H   40.430   40.940   22.408
H   40.378   43.799   22.188
H   42.121   42.830   21.362
H   42.703   41.112   21.802
H   42.889   42.444   22.957
H   38.335   42.781   21.707
H   37.958   43.794   23.097
H   37.888   40.738   22.724
H   36.804   41.682   23.659
H   38.379   41.209   24.273
H   39.930   48.449   25.731
H   38.143   47.973   25.812
H   39.315   47.404   24.591
H   38.210   45.553   30.530
H   41.037   46.708   33.912
H   39.477   47.207   34.532
H   40.451   48.364   33.640
H   37.539   44.184   37.289
H   39.155   44.899   37.301
H   38.951   41.852   38.026
H   38.869   45.215   39.889
H   40.275   44.488   40.589
H   38.705   44.280   41.364
H   40.428   41.778   40.791
H   39.309   40.940   39.804
H   37.466   41.838   41.311
H   38.820   42.184   42.360
H   38.553   39.363   41.047
H   37.164   39.834   41.954
H   38.844   40.479   43.886
H   41.039   39.421   43.963
H   40.705   39.518   42.308
H   40.397   37.931   43.289
H   38.345   37.754   44.538
H   37.214   38.043   43.291
H   36.147   38.887   45.265
H   36.782   40.240   44.563
H   38.041   40.704   46.354
H   38.780   39.047   46.388
H   35.840   39.677   47.199
H   37.301   39.937   49.705
H   36.249   41.020   48.884
H   37.998   41.003   48.467
H   37.384   37.893   49.049
H   37.686   37.321   47.488
H   34.687   37.890   47.869
H   35.201   36.905   49.127
H   35.050   35.161   47.734
H   36.496   35.615   46.859
H   34.861   37.166   45.618
H   34.442   34.954   43.983
H   35.693   34.449   44.963
H   35.699   36.048   44.019
H   32.520   36.673   46.146
H   32.954   35.347   47.056
H   32.799   35.101   45.353

