%nproc=24
%mem=75GB
#p blyp/Def2SVP td=(nstates=5)

step_901_chromophore_22 TDDFT with blyp functional

0 1
Mg   8.562   48.489   25.250
C   6.331   48.556   28.119
C   11.000   49.401   27.434
C   10.440   48.405   22.680
C   5.602   48.152   23.242
N   8.591   48.926   27.591
C   7.648   48.731   28.527
C   8.141   49.281   29.900
C   9.556   49.965   29.539
C   9.765   49.314   28.102
C   9.688   51.531   29.628
C   8.223   48.182   30.934
C   7.581   48.621   32.229
C   7.554   47.612   33.424
O   7.066   46.486   33.475
O   8.024   48.287   34.505
N   10.519   48.606   25.079
C   11.367   49.046   26.076
C   12.734   49.184   25.496
C   12.615   48.829   24.145
C   11.181   48.555   23.913
C   13.938   49.744   26.301
C   13.678   48.720   23.135
O   13.367   48.430   21.989
C   15.074   49.039   23.373
N   8.043   48.240   23.210
C   9.061   48.170   22.366
C   8.519   47.919   20.879
C   7.022   47.478   21.228
C   6.825   47.910   22.637
C   8.704   49.105   19.902
C   6.836   45.918   21.069
C   5.699   45.522   20.096
N   6.482   48.504   25.511
C   5.461   48.295   24.644
C   4.185   48.308   25.348
C   4.522   48.349   26.651
C   5.913   48.489   26.760
C   2.865   48.131   24.759
C   3.858   48.431   27.940
O   2.684   48.330   28.258
C   5.073   48.549   29.007
C   4.861   47.362   29.941
O   5.488   46.304   29.820
O   3.970   47.626   30.951
C   3.843   46.607   32.001
C   7.717   47.683   35.812
C   8.840   48.090   36.749
C   8.834   47.847   38.101
C   7.891   46.983   38.883
C   10.107   48.288   38.878
C   9.945   48.928   40.200
C   11.028   48.511   41.202
C   10.569   47.503   42.323
C   10.384   48.286   43.632
C   11.623   46.399   42.510
C   11.341   45.241   41.573
C   12.657   44.801   40.794
C   13.459   43.633   41.401
C   14.131   42.723   40.367
C   14.566   44.165   42.393
C   15.376   43.064   43.014
C   15.297   42.980   44.602
C   14.814   41.624   45.209
C   13.787   41.831   46.345
C   15.962   40.734   45.710
H   11.772   49.701   28.146
H   11.038   48.517   21.773
H   4.708   48.181   22.616
H   7.394   50.039   30.134
H   10.387   49.606   30.145
H   8.766   52.108   29.695
H   10.278   51.936   28.805
H   10.259   51.750   30.530
H   9.263   48.052   31.234
H   7.728   47.349   30.436
H   6.547   48.820   31.945
H   7.958   49.614   32.472
H   13.684   49.971   27.336
H   14.208   50.651   25.760
H   14.726   48.992   26.252
H   15.242   50.088   23.618
H   15.634   48.718   22.495
H   15.448   48.424   24.191
H   9.156   47.109   20.525
H   6.359   48.100   20.626
H   8.979   50.070   20.330
H   7.796   49.183   19.304
H   9.527   48.775   19.268
H   6.631   45.517   22.062
H   7.727   45.465   20.635
H   5.636   46.356   19.397
H   4.760   45.415   20.640
H   5.819   44.524   19.675
H   2.457   47.187   25.119
H   2.776   48.148   23.672
H   2.294   48.961   25.174
H   4.979   49.483   29.561
H   4.411   45.681   31.911
H   2.770   46.424   32.059
H   4.110   47.084   32.944
H   7.562   46.605   35.823
H   6.836   48.217   36.168
H   9.690   48.577   36.272
H   7.401   46.320   38.170
H   7.184   47.724   39.255
H   8.426   46.399   39.633
H   10.652   49.043   38.311
H   10.808   47.467   39.027
H   8.932   48.725   40.545
H   10.035   50.009   40.087
H   11.514   49.421   41.554
H   11.853   48.027   40.678
H   9.608   47.031   42.120
H   10.292   49.342   43.377
H   11.227   48.250   44.322
H   9.469   48.000   44.150
H   11.381   45.995   43.493
H   12.646   46.763   42.408
H   10.606   45.583   40.845
H   10.984   44.389   42.151
H   13.350   45.599   40.525
H   12.159   44.467   39.884
H   12.776   43.106   42.067
H   15.209   42.880   40.321
H   13.768   42.902   39.355
H   14.006   41.656   40.551
H   14.140   44.761   43.201
H   15.255   44.851   41.899
H   16.413   43.337   42.820
H   15.143   42.134   42.496
H   14.637   43.713   45.066
H   16.284   43.257   44.971
H   14.385   41.018   44.411
H   13.531   40.878   46.809
H   12.909   42.263   45.866
H   14.104   42.535   47.114
H   15.780   39.682   45.491
H   16.029   40.655   46.795
H   16.897   41.081   45.270

