%nproc=24
%mem=75GB
#p wB97XD/Def2SVP td=(nstates=5)

step_201_chromophore_17 TDDFT with wB97XD functional

0 1
Mg   29.670   59.696   41.172
C   26.718   57.962   40.305
C   31.321   56.905   39.846
C   32.439   61.561   40.814
C   27.781   62.509   41.869
N   29.050   57.721   40.114
C   27.800   57.164   39.960
C   27.811   55.840   39.167
C   29.287   55.454   39.348
C   29.964   56.775   39.766
C   29.495   54.357   40.442
C   27.367   56.166   37.687
C   26.344   55.131   36.993
C   26.754   54.521   35.618
O   26.975   53.340   35.321
O   26.826   55.470   34.645
N   31.635   59.260   40.540
C   32.120   58.056   40.117
C   33.534   58.233   39.954
C   33.922   59.528   40.318
C   32.629   60.203   40.611
C   34.345   57.194   39.385
C   35.364   60.077   40.228
O   36.357   59.365   39.896
C   35.660   61.544   40.407
N   30.033   61.719   41.126
C   31.305   62.235   41.138
C   31.320   63.761   41.317
C   29.841   64.015   41.778
C   29.162   62.646   41.675
C   32.464   64.353   42.181
C   29.050   65.051   40.965
C   28.401   66.080   41.840
N   27.686   60.176   41.204
C   27.005   61.363   41.516
C   25.587   61.119   41.470
C   25.463   59.836   41.013
C   26.737   59.275   40.840
C   24.609   62.124   41.777
C   24.481   58.862   40.567
O   23.267   58.892   40.523
C   25.267   57.688   39.984
C   24.896   56.335   40.528
O   25.148   55.821   41.632
O   24.067   55.822   39.644
C   23.255   54.680   40.132
C   27.083   55.042   33.306
C   26.728   56.166   32.366
C   26.462   56.161   30.992
C   26.799   54.919   30.233
C   25.630   57.271   30.262
C   26.467   57.983   29.115
C   26.861   59.424   29.523
C   28.383   59.827   29.392
C   28.693   61.258   28.899
C   29.150   59.525   30.727
C   30.631   59.177   30.457
C   30.873   57.687   30.818
C   32.036   57.078   29.987
C   31.547   56.841   28.530
C   32.634   55.807   30.615
C   34.135   55.909   30.964
C   34.885   55.564   29.593
C   35.728   54.320   29.618
C   36.852   54.416   30.641
C   36.221   53.988   28.199
H   31.774   55.942   39.605
H   33.250   62.281   40.688
H   27.128   63.318   42.202
H   27.107   55.114   39.576
H   29.828   55.226   38.429
H   29.870   54.898   41.310
H   30.369   53.790   40.122
H   28.618   53.748   40.663
H   28.271   56.215   37.081
H   27.003   57.192   37.627
H   25.356   55.567   36.845
H   26.264   54.333   37.731
H   33.811   56.662   38.598
H   34.738   56.498   40.127
H   35.340   57.496   39.058
H   35.245   62.335   39.783
H   36.735   61.656   40.266
H   35.482   61.676   41.474
H   31.435   64.074   40.279
H   29.775   64.258   42.838
H   33.163   64.784   41.465
H   32.894   63.554   42.785
H   32.129   65.024   42.973
H   28.231   64.505   40.497
H   29.680   65.663   40.320
H   27.323   65.943   41.760
H   28.704   67.094   41.580
H   28.672   65.930   42.885
H   24.668   62.567   42.771
H   23.621   61.687   41.632
H   24.888   62.785   40.956
H   25.175   57.551   38.906
H   22.507   55.034   40.842
H   23.861   53.942   40.657
H   22.717   54.172   39.331
H   26.404   54.218   33.089
H   28.136   54.791   33.180
H   26.611   57.143   32.835
H   27.444   54.213   30.755
H   27.508   55.145   29.436
H   25.975   54.384   29.762
H   25.230   57.879   31.074
H   24.716   56.844   29.849
H   25.830   57.986   28.231
H   27.354   57.397   28.875
H   26.613   59.653   30.560
H   26.219   60.122   28.986
H   28.720   59.209   28.559
H   29.286   61.790   29.644
H   27.797   61.845   28.698
H   29.324   61.184   28.014
H   28.720   58.752   31.364
H   29.194   60.498   31.216
H   31.227   59.669   31.226
H   30.921   59.480   29.451
H   29.956   57.106   30.717
H   30.995   57.618   31.899
H   32.837   57.817   30.001
H   30.987   55.910   28.612
H   32.443   56.576   27.967
H   30.999   57.655   28.056
H   32.477   55.027   29.871
H   32.021   55.523   31.471
H   34.424   55.176   31.717
H   34.350   56.910   31.337
H   35.611   56.347   29.374
H   34.175   55.663   28.773
H   34.946   53.625   29.925
H   37.503   53.549   30.528
H   36.589   54.390   31.699
H   37.314   55.368   30.379
H   37.211   53.548   28.321
H   36.432   54.919   27.672
H   35.643   53.272   27.614

