%nproc=24
%mem=75GB
#p cam-b3lyp/Def2SVP td=(nstates=5)

step_251_chromophore_26 TDDFT with cam-b3lyp functional

0 1
Mg   -9.266   18.277   42.965
C   -5.811   17.580   42.981
C   -8.474   21.429   42.139
C   -12.475   18.670   42.487
C   -9.752   14.741   43.141
N   -7.344   19.346   42.562
C   -6.062   18.930   42.693
C   -5.040   20.022   42.450
C   -5.985   21.290   42.459
C   -7.377   20.700   42.367
C   -5.826   22.232   43.723
C   -4.082   20.007   41.180
C   -4.366   19.091   39.960
C   -3.965   19.619   38.532
O   -2.856   20.058   38.292
O   -4.985   19.450   37.697
N   -10.318   19.935   42.507
C   -9.837   21.101   42.097
C   -10.971   21.972   41.684
C   -12.198   21.172   41.959
C   -11.676   19.855   42.325
C   -10.825   23.419   41.297
C   -13.616   21.633   41.745
O   -13.811   22.791   41.384
C   -14.899   20.733   41.883
N   -10.948   16.844   42.715
C   -12.121   17.376   42.702
C   -13.182   16.193   42.820
C   -12.257   14.975   42.775
C   -10.855   15.546   42.866
C   -14.162   16.181   44.005
C   -12.300   14.180   41.369
C   -12.887   12.757   41.403
N   -8.106   16.497   42.982
C   -8.416   15.177   43.177
C   -7.193   14.392   43.487
C   -6.095   15.278   43.297
C   -6.758   16.566   43.101
C   -7.098   12.869   43.729
C   -4.681   15.451   43.267
O   -3.711   14.674   43.284
C   -4.425   16.974   43.136
C   -3.610   17.393   44.363
O   -2.455   17.692   44.512
O   -4.507   17.603   45.416
C   -3.956   18.135   46.701
C   -4.528   19.825   36.292
C   -5.583   19.632   35.190
C   -6.239   18.513   34.751
C   -5.847   17.116   35.214
C   -7.347   18.624   33.673
C   -8.725   18.249   34.196
C   -9.847   18.177   33.137
C   -10.913   19.359   33.133
C   -12.310   18.703   33.096
C   -10.701   20.261   31.936
C   -11.065   21.746   32.092
C   -9.944   22.738   31.840
C   -10.280   23.852   30.762
C   -9.605   25.163   31.137
C   -9.882   23.402   29.313
C   -10.724   24.037   28.195
C   -11.614   23.021   27.349
C   -13.033   23.517   27.123
C   -13.955   22.868   28.141
C   -13.398   23.199   25.669
H   -8.187   22.446   41.863
H   -13.543   18.861   42.357
H   -9.935   13.711   43.453
H   -4.447   20.049   43.364
H   -5.756   21.914   41.595
H   -5.110   21.816   44.431
H   -6.796   22.111   44.204
H   -5.588   23.245   43.398
H   -3.080   19.786   41.548
H   -3.997   21.023   40.793
H   -5.442   18.917   39.970
H   -3.770   18.179   39.946
H   -11.771   23.960   41.289
H   -10.257   23.430   40.366
H   -10.117   23.809   42.029
H   -15.084   20.150   42.786
H   -14.851   19.961   41.115
H   -15.817   21.308   41.765
H   -13.877   16.197   41.981
H   -12.394   14.182   43.511
H   -14.026   17.047   44.653
H   -14.099   15.251   44.571
H   -15.207   16.259   43.705
H   -11.304   14.053   40.947
H   -12.881   14.812   40.697
H   -12.449   12.051   40.697
H   -13.929   12.873   41.105
H   -12.711   12.440   42.431
H   -7.988   12.302   43.458
H   -6.941   12.784   44.804
H   -6.189   12.506   43.250
H   -3.848   17.166   42.232
H   -2.932   17.881   46.974
H   -4.580   17.654   47.454
H   -4.059   19.200   46.910
H   -3.540   19.515   35.949
H   -4.448   20.908   36.192
H   -5.846   20.530   34.629
H   -5.124   16.605   34.577
H   -6.672   16.418   35.361
H   -5.342   17.287   36.164
H   -7.080   17.980   32.835
H   -7.398   19.616   33.226
H   -8.994   18.995   34.944
H   -8.685   17.223   34.562
H   -10.298   17.194   33.274
H   -9.389   18.148   32.148
H   -10.808   19.935   34.052
H   -13.033   19.507   32.960
H   -12.535   18.307   34.086
H   -12.350   18.047   32.227
H   -11.165   19.893   31.021
H   -9.633   20.226   31.719
H   -11.497   21.937   33.074
H   -11.877   21.910   31.383
H   -8.928   22.374   31.684
H   -9.928   23.328   32.756
H   -11.368   23.883   30.703
H   -10.344   25.963   31.103
H   -8.853   25.385   30.380
H   -9.048   25.160   32.074
H   -10.039   22.327   29.234
H   -8.833   23.546   29.056
H   -10.057   24.551   27.503
H   -11.391   24.750   28.681
H   -11.658   22.008   27.751
H   -11.051   22.934   26.419
H   -13.023   24.596   27.279
H   -14.112   21.869   27.734
H   -14.828   23.467   28.401
H   -13.464   22.724   29.103
H   -12.683   22.516   25.211
H   -13.439   24.127   25.099
H   -14.288   22.572   25.717

