%nproc=24
%mem=75GB
#p wB97XD/Def2SVP td=(nstates=5)

step_1751_chromophore_15 TDDFT with wB97XD functional

0 1
Mg   46.591   35.567   28.304
C   45.542   33.419   30.789
C   46.902   37.951   30.504
C   47.531   37.511   25.706
C   46.100   32.830   25.953
N   46.406   35.589   30.383
C   46.014   34.615   31.196
C   46.161   35.132   32.626
C   45.959   36.668   32.460
C   46.511   36.742   31.012
C   44.464   37.115   32.521
C   47.533   34.734   33.277
C   47.643   34.573   34.829
C   46.620   35.240   35.722
O   45.577   34.752   36.145
O   47.150   36.401   36.097
N   47.268   37.405   28.089
C   47.307   38.259   29.160
C   47.918   39.525   28.753
C   48.005   39.412   27.336
C   47.542   38.069   26.975
C   48.139   40.735   29.785
C   48.476   40.426   26.348
O   48.536   40.206   25.137
C   48.976   41.660   26.763
N   46.972   35.145   26.079
C   47.325   36.162   25.305
C   47.396   35.739   23.821
C   46.839   34.241   23.821
C   46.619   34.012   25.342
C   46.633   36.651   22.786
C   47.804   33.222   23.126
C   47.095   32.011   22.471
N   46.043   33.566   28.299
C   45.883   32.593   27.339
C   45.463   31.280   27.937
C   45.209   31.682   29.187
C   45.629   33.031   29.418
C   45.281   29.999   27.319
C   44.694   31.182   30.405
O   44.275   30.042   30.717
C   44.750   32.333   31.457
C   45.240   31.807   32.726
O   46.361   31.305   32.868
O   44.242   31.953   33.701
C   44.195   31.195   34.937
C   46.688   36.905   37.366
C   47.771   37.767   38.015
C   47.621   38.803   38.906
C   46.201   39.301   39.378
C   48.813   39.646   39.487
C   49.389   40.713   38.560
C   48.857   42.161   38.948
C   49.719   43.293   38.363
C   51.048   43.534   39.084
C   48.890   44.559   38.126
C   48.569   45.354   39.486
C   48.503   46.840   39.273
C   47.111   47.417   38.888
C   47.253   48.886   38.550
C   46.071   47.240   40.065
C   44.963   46.167   39.700
C   43.770   46.701   38.745
C   42.351   46.328   39.162
C   41.399   46.032   37.963
C   41.656   47.488   40.034
H   47.067   38.751   31.229
H   47.783   38.101   24.822
H   45.729   32.036   25.301
H   45.385   34.804   33.318
H   46.661   37.157   33.135
H   44.276   37.927   31.819
H   44.348   37.532   33.521
H   43.807   36.278   32.285
H   48.163   35.540   32.898
H   47.726   33.738   32.878
H   48.622   34.797   35.252
H   47.433   33.509   34.935
H   47.646   40.644   30.752
H   47.769   41.656   29.335
H   49.199   40.921   29.960
H   49.754   41.365   27.467
H   48.202   42.294   27.196
H   49.384   42.190   25.902
H   48.460   35.772   23.588
H   45.856   34.260   23.352
H   46.155   37.479   23.309
H   45.769   36.150   22.349
H   47.321   37.085   22.060
H   48.384   32.831   23.962
H   48.439   33.727   22.399
H   47.272   31.940   21.398
H   46.024   32.046   22.669
H   47.466   31.067   22.869
H   45.164   29.199   28.049
H   46.132   29.701   26.705
H   44.429   30.045   26.641
H   43.709   32.609   31.628
H   43.842   31.998   35.584
H   45.113   30.852   35.416
H   43.504   30.354   34.994
H   46.396   36.203   38.147
H   45.909   37.630   37.133
H   48.795   37.655   37.659
H   46.120   39.179   40.458
H   45.357   38.759   38.952
H   46.110   40.381   39.264
H   49.657   39.008   39.747
H   48.409   40.131   40.376
H   49.073   40.574   37.526
H   50.478   40.761   38.587
H   48.763   42.177   40.034
H   47.877   42.301   38.492
H   49.967   42.882   37.384
H   51.253   42.653   39.693
H   50.999   44.424   39.712
H   51.892   43.640   38.403
H   47.941   44.361   37.628
H   49.447   45.273   37.518
H   49.193   45.248   40.372
H   47.634   44.861   39.752
H   49.157   46.961   38.409
H   48.987   47.408   40.068
H   46.906   46.943   37.928
H   47.070   49.025   37.485
H   48.283   49.187   38.743
H   46.628   49.557   39.139
H   45.644   48.228   40.240
H   46.676   46.840   40.878
H   44.533   45.795   40.630
H   45.468   45.326   39.225
H   44.053   46.380   37.743
H   43.900   47.782   38.698
H   42.342   45.458   39.819
H   41.994   45.923   37.057
H   40.804   46.935   37.826
H   40.758   45.157   38.074
H   42.095   48.476   39.897
H   41.761   47.387   41.114
H   40.605   47.716   39.858

