%nproc=24
%mem=75GB
#p PBE1PBE/Def2SVP td=(nstates=5)

step_901_chromophore_18 TDDFT with PBE1PBE functional

0 1
Mg   34.899   49.813   25.486
C   34.766   47.899   28.335
C   33.272   52.343   27.270
C   34.047   51.302   22.629
C   35.677   46.909   23.665
N   34.053   50.074   27.612
C   34.197   49.165   28.571
C   33.908   49.844   30.008
C   33.134   51.168   29.577
C   33.573   51.208   28.127
C   31.617   51.283   29.779
C   35.220   50.123   30.838
C   35.149   49.548   32.295
C   33.776   49.454   32.924
O   33.118   48.418   33.106
O   33.400   50.747   33.355
N   34.033   51.699   25.009
C   33.425   52.556   25.851
C   32.967   53.752   25.102
C   33.241   53.425   23.737
C   33.790   52.158   23.711
C   32.295   54.912   25.717
C   32.941   54.276   22.415
O   33.206   53.853   21.249
C   32.383   55.688   22.642
N   34.912   49.200   23.433
C   34.481   49.972   22.489
C   34.675   49.294   21.036
C   35.451   48.038   21.451
C   35.388   48.087   22.943
C   33.398   48.982   20.185
C   36.972   48.004   20.879
C   38.116   48.828   21.618
N   35.179   47.764   25.901
C   35.453   46.702   25.085
C   35.821   45.603   25.917
C   35.575   46.019   27.217
C   35.070   47.327   27.135
C   36.348   44.325   25.408
C   35.532   45.574   28.643
O   35.828   44.540   29.217
C   34.931   46.801   29.441
C   33.776   46.266   30.189
O   32.596   46.122   29.719
O   34.125   45.849   31.443
C   33.020   45.440   32.333
C   32.158   50.670   34.058
C   31.464   52.062   33.942
C   30.466   52.646   34.572
C   29.597   52.002   35.707
C   30.032   54.060   34.240
C   30.567   55.164   35.235
C   31.013   56.440   34.517
C   31.337   57.682   35.397
C   32.868   57.928   35.383
C   30.541   59.012   35.009
C   29.206   59.052   35.723
C   29.184   60.019   36.872
C   28.023   61.051   36.885
C   28.062   62.158   35.872
C   27.689   61.528   38.346
C   26.200   61.854   38.596
C   26.002   63.178   39.384
C   26.004   64.441   38.463
C   27.341   65.170   38.587
C   24.817   65.437   38.712
H   32.797   53.128   27.862
H   33.883   51.679   21.617
H   35.973   46.020   23.104
H   33.290   49.129   30.550
H   33.619   52.052   29.991
H   31.184   51.498   28.802
H   31.551   52.062   30.537
H   31.119   50.384   30.142
H   35.370   51.203   30.843
H   36.047   49.779   30.217
H   35.638   50.242   32.979
H   35.651   48.582   32.229
H   31.218   54.985   25.571
H   32.771   55.812   25.328
H   32.408   55.086   26.787
H   32.157   56.202   21.708
H   33.154   56.353   23.030
H   31.499   55.655   23.278
H   35.307   49.922   20.408
H   35.063   47.102   21.048
H   33.548   49.509   19.242
H   32.505   49.430   20.622
H   33.188   47.939   19.949
H   37.062   48.276   19.827
H   37.276   46.958   20.855
H   38.568   48.317   22.468
H   37.622   49.686   22.074
H   38.795   49.323   20.923
H   37.310   44.437   24.909
H   35.667   43.793   24.744
H   36.682   43.670   26.214
H   35.707   47.113   30.140
H   32.197   46.152   32.389
H   33.424   45.235   33.324
H   32.548   44.555   31.905
H   32.316   50.449   35.113
H   31.456   49.893   33.757
H   31.949   52.764   33.264
H   28.708   51.441   35.419
H   29.557   52.602   36.616
H   30.060   51.109   36.128
H   28.956   54.026   34.408
H   30.158   54.279   33.180
H   31.391   54.831   35.866
H   29.860   55.486   36.000
H   30.229   56.771   33.836
H   31.897   56.136   33.957
H   31.067   57.364   36.404
H   33.399   56.991   35.556
H   33.166   58.567   36.215
H   32.999   58.369   34.395
H   30.286   58.989   33.949
H   31.108   59.936   35.124
H   28.949   58.135   36.252
H   28.370   59.347   35.088
H   30.109   60.596   36.850
H   29.154   59.414   37.779
H   27.096   60.641   36.483
H   27.316   61.941   35.108
H   28.997   62.182   35.313
H   28.058   63.161   36.298
H   28.287   62.420   38.532
H   28.016   60.770   39.058
H   25.676   61.072   39.147
H   25.524   61.991   37.753
H   26.706   63.365   40.195
H   25.033   63.052   39.868
H   26.104   64.161   37.414
H   28.048   64.653   39.236
H   27.257   66.227   38.838
H   27.774   65.190   37.587
H   25.024   66.498   38.573
H   24.464   65.251   39.726
H   24.004   65.194   38.029

