%nproc=24
%mem=75GB
#p cam-b3lyp/Def2SVP td=(nstates=5)

step_1351_chromophore_13 TDDFT with cam-b3lyp functional

0 1
Mg   46.326   24.923   28.634
C   46.811   27.283   31.228
C   45.142   22.684   30.904
C   46.720   22.523   26.181
C   47.917   27.224   26.467
N   46.195   25.006   30.910
C   46.355   26.112   31.756
C   45.973   25.712   33.167
C   45.365   24.231   32.987
C   45.672   23.869   31.535
C   46.108   23.165   33.886
C   44.964   26.722   33.776
C   45.281   27.347   35.253
C   44.369   27.068   36.368
O   43.191   26.760   36.086
O   44.872   27.351   37.585
N   45.857   22.847   28.520
C   45.277   22.170   29.590
C   45.039   20.802   29.102
C   45.570   20.714   27.777
C   46.095   22.070   27.399
C   44.389   19.689   30.020
C   45.519   19.479   26.867
O   45.996   19.402   25.729
C   44.833   18.317   27.412
N   47.179   24.875   26.606
C   47.211   23.803   25.814
C   47.891   24.111   24.450
C   48.238   25.592   24.634
C   47.670   25.979   25.903
C   49.238   23.308   24.170
C   47.779   26.490   23.465
C   46.412   27.140   23.582
N   47.124   26.913   28.726
C   47.697   27.745   27.769
C   47.928   29.038   28.360
C   47.725   28.814   29.689
C   47.151   27.568   29.880
C   48.405   30.311   27.637
C   47.970   29.441   30.909
O   48.432   30.508   31.177
C   47.336   28.551   31.997
C   48.416   28.170   33.055
O   49.265   27.233   32.964
O   48.345   28.982   34.181
C   49.137   28.523   35.346
C   43.948   27.130   38.706
C   44.066   25.729   39.269
C   43.601   25.334   40.445
C   42.777   26.187   41.455
C   43.837   23.872   40.903
C   42.720   22.805   40.737
C   42.112   22.444   42.120
C   40.715   21.734   42.141
C   40.564   20.504   41.132
C   39.506   22.711   41.904
C   38.439   22.608   43.013
C   38.773   23.638   44.165
C   38.606   23.092   45.629
C   37.184   22.735   45.965
C   39.186   24.134   46.624
C   40.200   23.511   47.629
C   41.616   23.394   47.128
C   42.580   24.573   47.620
C   43.822   24.591   46.704
C   42.939   24.315   49.116
H   44.504   22.068   31.541
H   46.746   21.742   25.418
H   48.305   27.895   25.698
H   46.957   25.694   33.637
H   44.291   24.310   33.154
H   45.372   22.630   34.486
H   46.837   23.608   34.564
H   46.505   22.320   33.323
H   43.915   26.441   33.871
H   44.819   27.637   33.202
H   45.461   28.412   35.105
H   46.216   27.046   35.727
H   43.509   19.338   29.481
H   43.935   20.067   30.936
H   45.012   18.811   30.188
H   44.841   17.652   26.548
H   43.832   18.597   27.740
H   45.360   17.697   28.137
H   47.209   24.068   23.601
H   49.324   25.630   24.553
H   49.463   22.672   25.026
H   50.118   23.938   24.042
H   48.926   22.700   23.320
H   47.850   25.937   22.529
H   48.597   27.211   23.456
H   46.007   27.071   22.573
H   46.589   28.178   23.864
H   45.759   26.667   24.315
H   48.923   30.034   26.719
H   48.997   30.881   28.353
H   47.596   31.013   27.435
H   46.494   29.161   32.326
H   48.642   27.649   35.770
H   49.096   29.360   36.042
H   50.217   28.464   35.214
H   42.882   27.257   38.514
H   44.298   27.803   39.488
H   44.620   25.020   38.653
H   42.610   27.168   41.009
H   43.329   26.236   42.393
H   41.824   25.691   41.640
H   44.085   23.940   41.962
H   44.689   23.334   40.486
H   43.152   21.884   40.345
H   41.842   23.125   40.175
H   42.042   23.283   42.813
H   42.801   21.729   42.569
H   40.622   21.327   43.149
H   40.296   19.539   41.562
H   41.505   20.409   40.589
H   39.771   20.612   40.392
H   39.003   22.384   40.994
H   39.939   23.711   41.873
H   38.239   21.630   43.451
H   37.477   22.866   42.570
H   38.118   24.496   44.014
H   39.818   23.932   44.063
H   39.038   22.092   45.667
H   37.198   21.997   46.768
H   36.563   22.358   45.152
H   36.658   23.558   46.450
H   38.346   24.571   47.164
H   39.639   24.963   46.079
H   39.930   22.472   47.817
H   40.045   23.958   48.611
H   41.516   23.457   46.045
H   42.163   22.485   47.379
H   41.953   25.462   47.560
H   43.768   23.938   45.833
H   44.768   24.454   47.227
H   43.767   25.581   46.251
H   43.989   24.217   49.395
H   42.429   23.429   49.494
H   42.527   25.137   49.701

