%nproc=24
%mem=75GB
#p PBE1PBE/Def2SVP td=(nstates=5)

step_851_chromophore_18 TDDFT with PBE1PBE functional

0 1
Mg   34.871   49.709   25.871
C   35.048   47.793   28.763
C   33.151   52.162   27.781
C   34.256   51.483   23.045
C   36.157   47.112   24.012
N   34.171   49.941   27.966
C   34.533   49.067   29.002
C   34.138   49.631   30.352
C   33.342   50.901   29.977
C   33.569   51.037   28.475
C   31.906   51.066   30.430
C   35.351   49.800   31.348
C   35.074   49.635   32.869
C   33.607   49.301   33.363
O   33.177   48.183   33.365
O   33.057   50.484   33.755
N   33.773   51.478   25.420
C   33.181   52.359   26.331
C   32.844   53.621   25.681
C   33.122   53.384   24.305
C   33.773   52.044   24.214
C   32.253   54.774   26.423
C   32.981   54.442   23.110
O   33.342   54.199   22.001
C   32.402   55.837   23.411
N   35.379   49.448   23.784
C   34.876   50.259   22.807
C   35.136   49.660   21.386
C   36.049   48.440   21.723
C   35.948   48.320   23.267
C   33.912   49.188   20.554
C   37.567   48.463   21.509
C   38.343   49.769   21.765
N   35.407   47.799   26.244
C   35.845   46.821   25.371
C   36.073   45.645   26.238
C   35.826   45.938   27.571
C   35.405   47.301   27.498
C   36.481   44.280   25.686
C   35.786   45.453   28.852
O   36.015   44.336   29.282
C   35.402   46.686   29.776
C   34.272   46.219   30.548
O   33.131   46.166   30.194
O   34.785   45.707   31.701
C   33.814   44.914   32.484
C   31.691   50.287   34.262
C   30.968   51.659   34.021
C   30.013   52.240   34.822
C   29.344   51.492   35.981
C   29.487   53.674   34.488
C   30.137   54.717   35.402
C   30.849   55.870   34.733
C   30.958   57.013   35.737
C   32.395   57.557   35.842
C   30.023   58.222   35.475
C   28.994   58.547   36.556
C   29.536   59.302   37.805
C   28.853   60.709   37.990
C   29.797   61.640   38.749
C   27.510   60.752   38.727
C   26.431   61.555   37.834
C   25.588   62.552   38.736
C   25.874   63.902   38.136
C   25.686   65.089   39.186
C   24.905   64.198   36.907
H   32.749   53.002   28.352
H   33.957   51.998   22.130
H   36.417   46.219   23.440
H   33.426   48.927   30.782
H   33.773   51.753   30.502
H   31.203   51.055   29.596
H   31.659   51.990   30.952
H   31.536   50.254   31.056
H   35.609   50.857   31.402
H   36.228   49.209   31.083
H   35.561   50.406   33.465
H   35.548   48.656   32.935
H   31.735   54.448   27.325
H   31.408   55.143   25.841
H   32.990   55.567   26.553
H   32.450   56.418   22.489
H   32.893   56.334   24.248
H   31.385   55.607   23.726
H   35.642   50.472   20.865
H   35.496   47.567   21.375
H   33.709   49.750   19.642
H   32.987   49.271   21.125
H   34.080   48.213   20.096
H   37.814   48.139   20.498
H   38.022   47.732   22.177
H   39.251   49.591   22.340
H   37.799   50.576   22.256
H   38.652   50.135   20.786
H   36.562   43.602   26.536
H   37.459   44.361   25.211
H   35.809   43.762   25.000
H   36.291   46.954   30.347
H   33.647   44.041   31.852
H   32.838   45.365   32.663
H   34.144   44.537   33.452
H   31.711   49.982   35.308
H   31.237   49.467   33.707
H   31.500   52.276   33.297
H   29.597   52.028   36.896
H   29.650   50.446   35.987
H   28.266   51.511   35.821
H   28.435   53.615   34.768
H   29.663   53.869   33.430
H   30.833   54.167   36.035
H   29.317   55.152   35.973
H   30.360   56.190   33.813
H   31.760   55.440   34.319
H   30.702   56.657   36.734
H   32.462   58.523   36.342
H   32.793   57.649   34.832
H   33.018   56.846   36.385
H   29.433   58.026   34.579
H   30.627   59.082   35.184
H   28.585   57.606   36.923
H   28.139   59.094   36.159
H   30.624   59.297   37.871
H   29.298   58.777   38.731
H   28.831   61.110   36.977
H   29.361   62.533   39.197
H   30.424   61.980   37.924
H   30.460   61.147   39.460
H   27.606   61.236   39.699
H   27.105   59.766   38.958
H   25.658   60.892   37.445
H   26.904   62.043   36.982
H   25.967   62.404   39.747
H   24.574   62.157   38.684
H   26.886   63.997   37.742
H   26.450   65.860   39.084
H   25.741   64.742   40.218
H   24.722   65.598   39.178
H   24.438   63.252   36.633
H   25.314   64.793   36.090
H   24.094   64.851   37.231

