%nproc=24
%mem=75GB
#p cam-b3lyp/Def2SVP td=(nstates=5)

step_1251_chromophore_12 TDDFT with cam-b3lyp functional

0 1
Mg   46.164   16.433   28.432
C   44.409   15.447   31.363
C   47.720   18.752   30.475
C   47.657   17.531   25.787
C   44.160   14.271   26.684
N   46.149   16.878   30.710
C   45.379   16.380   31.685
C   45.810   16.812   33.070
C   46.593   18.117   32.722
C   46.902   17.888   31.222
C   45.870   19.509   32.991
C   46.667   15.729   33.817
C   46.485   15.677   35.358
C   47.797   15.437   36.143
O   48.509   14.450   36.108
O   48.134   16.540   36.867
N   47.662   17.836   28.181
C   48.082   18.729   29.171
C   48.858   19.800   28.490
C   48.957   19.419   27.131
C   48.117   18.211   26.958
C   49.627   20.874   29.154
C   49.701   20.038   26.041
O   49.795   19.583   24.930
C   50.569   21.321   26.220
N   46.130   15.669   26.521
C   46.738   16.433   25.539
C   46.424   15.839   24.133
C   45.378   14.719   24.443
C   45.253   14.790   26.024
C   46.035   16.857   23.119
C   45.953   13.353   23.902
C   47.297   12.811   24.475
N   44.608   15.099   28.876
C   43.872   14.327   28.080
C   42.811   13.720   28.774
C   43.007   14.082   30.104
C   44.169   14.927   30.122
C   41.719   12.963   28.122
C   42.513   13.989   31.415
O   41.524   13.419   31.808
C   43.477   14.865   32.312
C   42.634   15.868   32.990
O   42.053   16.764   32.400
O   42.704   15.766   34.312
C   42.037   16.811   35.110
C   49.314   16.521   37.675
C   49.380   17.784   38.513
C   50.269   18.056   39.430
C   51.422   17.140   39.881
C   50.252   19.348   40.246
C   50.740   20.527   39.419
C   51.806   21.316   40.145
C   52.911   21.819   39.150
C   53.956   22.554   39.968
C   52.394   22.786   38.073
C   53.217   22.891   36.746
C   53.318   24.342   36.120
C   53.244   24.230   34.540
C   54.744   24.077   34.101
C   52.623   25.509   33.925
C   51.500   25.227   32.934
C   52.035   24.600   31.670
C   51.709   25.435   30.461
C   50.192   25.281   30.222
C   52.709   25.212   29.356
H   48.179   19.532   31.086
H   48.176   17.889   24.895
H   43.502   13.655   26.068
H   44.882   17.065   33.582
H   47.451   18.125   33.394
H   45.429   19.854   32.056
H   46.547   20.250   33.417
H   45.109   19.326   33.749
H   47.724   15.776   33.556
H   46.387   14.725   33.499
H   45.813   14.835   35.525
H   45.913   16.480   35.824
H   49.653   21.823   28.619
H   50.642   20.537   29.363
H   49.111   21.106   30.086
H   50.156   22.211   26.696
H   51.104   21.732   25.364
H   51.356   21.014   26.908
H   47.327   15.316   23.816
H   44.412   14.920   23.979
H   46.277   17.865   23.457
H   44.979   16.764   22.867
H   46.593   16.662   22.203
H   45.986   13.469   22.819
H   45.158   12.631   24.091
H   47.856   13.502   25.105
H   48.049   12.661   23.700
H   47.139   11.873   25.007
H   41.178   13.534   27.368
H   40.988   12.813   28.917
H   42.029   11.965   27.811
H   43.945   14.139   32.977
H   42.555   17.769   35.083
H   42.030   16.538   36.165
H   41.003   17.030   34.842
H   50.275   16.529   37.160
H   49.343   15.669   38.354
H   48.753   18.649   38.295
H   52.336   17.672   39.617
H   51.355   16.163   39.403
H   51.443   16.878   40.939
H   50.747   19.193   41.205
H   49.219   19.511   40.553
H   49.884   21.132   39.119
H   51.215   20.104   38.534
H   52.327   20.686   40.866
H   51.377   22.175   40.662
H   53.299   20.967   38.592
H   53.682   22.665   41.017
H   54.315   23.485   39.529
H   54.894   22.001   40.007
H   52.166   23.782   38.453
H   51.405   22.488   37.724
H   52.821   22.161   36.040
H   54.246   22.556   36.871
H   54.249   24.719   36.543
H   52.560   24.992   36.557
H   52.773   23.369   34.065
H   55.286   24.917   34.536
H   54.814   24.251   33.027
H   55.119   23.073   34.297
H   53.458   25.992   33.418
H   52.262   26.205   34.682
H   50.968   26.147   32.694
H   50.744   24.594   33.398
H   51.605   23.617   31.479
H   53.117   24.483   31.723
H   51.866   26.466   30.778
H   49.827   26.306   30.147
H   49.662   24.794   31.041
H   50.066   24.794   29.255
H   52.178   25.082   28.414
H   53.199   24.250   29.505
H   53.364   26.083   29.397

