%nproc=24
%mem=75GB
#p PBE1PBE/Def2SVP td=(nstates=5)

step_401_chromophore_7 TDDFT with PBE1PBE functional

0 1
Mg   25.965   0.373   28.861
C   27.891   -0.209   31.933
C   23.329   0.742   30.824
C   24.312   0.948   26.071
C   28.926   -0.303   27.111
N   25.665   0.276   31.198
C   26.542   -0.024   32.239
C   25.865   0.186   33.570
C   24.289   0.147   33.112
C   24.425   0.467   31.614
C   23.554   -1.117   33.314
C   26.429   1.571   34.203
C   27.007   1.434   35.641
C   26.466   2.463   36.714
O   26.565   3.673   36.671
O   25.951   1.871   37.803
N   24.047   0.839   28.526
C   23.095   0.892   29.408
C   21.863   1.233   28.734
C   22.104   1.344   27.339
C   23.497   0.966   27.237
C   20.611   1.492   29.513
C   21.186   1.744   26.303
O   21.537   1.948   25.147
C   19.770   2.006   26.626
N   26.507   0.059   26.903
C   25.635   0.553   25.942
C   26.257   0.543   24.523
C   27.773   0.333   24.894
C   27.763   0.007   26.381
C   25.689   -0.460   23.529
C   28.708   1.431   24.365
C   29.673   0.909   23.335
N   27.969   -0.180   29.348
C   29.019   -0.361   28.521
C   30.203   -0.746   29.332
C   29.824   -0.565   30.656
C   28.475   -0.292   30.656
C   31.476   -1.141   28.784
C   30.237   -0.545   31.990
O   31.340   -0.755   32.464
C   29.027   -0.179   32.915
C   28.802   -1.320   33.883
O   28.429   -2.419   33.574
O   29.024   -0.919   35.204
C   28.767   -1.913   36.263
C   25.557   2.777   38.900
C   25.610   2.005   40.131
C   24.936   2.223   41.270
C   24.126   3.488   41.501
C   24.837   1.195   42.382
C   24.896   1.738   43.795
C   23.443   2.078   44.299
C   23.308   1.794   45.850
C   22.972   0.289   46.093
C   22.194   2.740   46.456
C   22.282   2.673   47.943
C   21.895   4.147   48.444
C   23.114   4.952   48.985
C   23.137   4.946   50.537
C   23.206   6.412   48.452
C   23.811   6.565   47.081
C   22.646   6.852   46.064
C   22.920   8.197   45.300
C   22.310   9.295   46.032
C   22.306   8.117   43.891
H   22.456   0.724   31.479
H   23.832   1.235   25.134
H   29.863   -0.469   26.576
H   26.085   -0.637   34.250
H   23.712   0.868   33.691
H   23.129   -1.545   32.406
H   22.737   -0.897   34.001
H   24.130   -1.894   33.816
H   25.660   2.342   34.173
H   27.238   1.962   33.587
H   28.077   1.590   35.500
H   26.720   0.447   36.003
H   20.290   2.526   29.390
H   20.673   1.169   30.552
H   19.891   0.814   29.054
H   19.123   2.271   25.790
H   19.789   2.905   27.243
H   19.367   1.122   27.120
H   26.084   1.543   24.124
H   28.067   -0.618   24.448
H   26.432   -0.468   22.732
H   24.725   -0.185   23.102
H   25.677   -1.476   23.923
H   29.243   2.031   25.102
H   28.053   2.211   23.977
H   29.361   0.081   22.699
H   30.520   0.623   23.959
H   30.194   1.666   22.749
H   32.274   -0.522   29.193
H   31.688   -1.183   27.715
H   31.664   -2.125   29.212
H   29.174   0.789   33.395
H   29.675   -2.371   36.656
H   27.997   -2.601   35.914
H   28.299   -1.447   37.131
H   24.559   3.109   38.616
H   26.267   3.587   39.064
H   26.222   1.108   40.034
H   24.122   4.164   40.646
H   24.545   4.000   42.367
H   23.109   3.240   41.805
H   25.782   0.652   42.346
H   23.990   0.529   42.217
H   25.651   2.524   43.807
H   25.410   0.992   44.401
H   22.676   1.671   43.641
H   23.351   3.158   44.179
H   24.265   1.964   46.342
H   23.692   -0.351   46.603
H   22.648   -0.098   45.127
H   22.074   0.205   46.705
H   21.184   2.411   46.210
H   22.406   3.752   46.110
H   23.255   2.288   48.246
H   21.529   1.953   48.264
H   21.218   4.031   49.290
H   21.337   4.762   47.737
H   24.028   4.474   48.633
H   22.958   3.925   50.872
H   22.383   5.600   50.974
H   24.130   5.261   50.860
H   23.808   6.967   49.172
H   22.202   6.835   48.492
H   24.326   5.711   46.642
H   24.492   7.412   47.166
H   21.669   6.886   46.547
H   22.678   6.093   45.282
H   23.981   8.447   45.306
H   22.886   9.427   46.948
H   21.351   9.022   46.472
H   22.141   10.230   45.499
H   21.747   7.202   43.695
H   22.997   8.393   43.094
H   21.538   8.884   43.790

