%nproc=24
%mem=50gb
#p ZINDO=(nstates=5)

step_801_chromophore_10 ZINDO

0 1
Mg   41.512   8.286   28.966
C   43.274   9.757   31.511
C   39.247   6.957   31.116
C   39.704   6.874   26.272
C   43.920   9.371   26.710
N   41.330   8.367   31.042
C   42.172   8.958   31.956
C   41.659   8.905   33.353
C   40.380   8.038   33.174
C   40.277   7.806   31.714
C   40.446   6.730   33.944
C   41.447   10.196   34.297
C   41.107   9.959   35.755
C   41.508   11.078   36.705
O   41.035   12.208   36.826
O   42.378   10.564   37.588
N   39.654   7.125   28.719
C   38.931   6.696   29.739
C   37.865   5.916   29.292
C   37.888   5.928   27.887
C   39.071   6.678   27.571
C   36.725   5.348   30.223
C   36.961   5.278   26.966
O   37.267   5.127   25.787
C   35.566   4.765   27.381
N   41.823   7.945   26.803
C   40.859   7.502   25.924
C   41.351   7.649   24.441
C   42.492   8.762   24.648
C   42.855   8.574   26.147
C   41.891   6.343   23.853
C   42.034   10.188   24.345
C   40.569   10.574   24.528
N   43.321   9.235   29.080
C   44.198   9.628   28.105
C   45.262   10.419   28.638
C   44.923   10.588   30.027
C   43.764   9.855   30.198
C   46.368   11.063   27.872
C   45.315   11.089   31.282
O   46.170   11.872   31.555
C   44.226   10.501   32.330
C   44.824   9.625   33.329
O   45.330   8.491   33.199
O   44.626   10.172   34.612
C   45.056   9.310   35.687
C   42.846   11.408   38.655
C   41.763   11.619   39.707
C   41.660   12.455   40.760
C   42.795   13.232   41.404
C   40.268   12.774   41.376
C   39.462   11.603   41.925
C   40.172   10.551   42.707
C   39.736   10.587   44.215
C   40.956   10.078   45.041
C   38.399   9.808   44.488
C   37.369   10.672   45.201
C   36.563   11.736   44.410
C   35.230   12.050   45.134
C   34.092   12.095   44.058
C   35.292   13.312   46.014
C   34.939   12.972   47.436
C   36.168   12.801   48.385
C   36.322   11.414   48.845
C   35.405   11.096   50.032
C   37.822   11.060   49.069
H   38.524   6.613   31.859
H   39.098   6.588   25.410
H   44.531   9.818   25.923
H   42.395   8.306   33.890
H   39.470   8.530   33.517
H   39.465   6.546   34.383
H   41.254   6.824   34.670
H   40.651   5.949   33.211
H   40.543   10.676   33.920
H   42.290   10.886   34.270
H   41.605   9.026   36.019
H   40.018   9.926   35.725
H   35.791   5.854   29.978
H   37.007   5.353   31.276
H   36.708   4.300   29.924
H   34.971   5.496   27.929
H   35.874   3.936   28.019
H   35.061   4.350   26.509
H   40.608   8.045   23.749
H   43.268   8.515   23.923
H   42.975   6.316   23.743
H   41.378   6.333   22.892
H   41.539   5.636   24.605
H   42.285   10.289   23.289
H   42.601   10.950   24.881
H   40.414   11.564   24.956
H   39.974   9.956   25.201
H   40.025   10.661   23.587
H   46.112   11.276   26.834
H   47.184   10.346   27.957
H   46.653   11.935   28.461
H   43.628   11.287   32.791
H   44.779   9.939   36.532
H   46.143   9.227   35.728
H   44.513   8.374   35.559
H   43.124   12.392   38.276
H   43.768   10.983   39.050
H   40.828   11.124   39.446
H   43.726   13.205   40.838
H   42.971   12.948   42.442
H   42.602   14.305   41.390
H   39.698   13.402   40.692
H   40.434   13.439   42.223
H   39.148   11.044   41.044
H   38.560   11.981   42.407
H   41.242   10.757   42.674
H   39.929   9.573   42.292
H   39.616   11.643   44.458
H   41.383   10.897   45.621
H   41.672   9.477   44.481
H   40.648   9.448   45.875
H   38.495   8.863   45.022
H   37.877   9.652   43.544
H   37.924   11.138   46.015
H   36.720   10.005   45.769
H   36.341   11.398   43.398
H   37.184   12.631   44.372
H   34.994   11.213   45.791
H   34.086   11.252   43.368
H   34.133   13.071   43.575
H   33.154   12.077   44.614
H   34.531   14.047   45.750
H   36.243   13.836   45.918
H   34.195   12.186   47.563
H   34.420   13.858   47.802
H   36.210   13.512   49.210
H   37.037   13.093   47.795
H   35.855   10.769   48.101
H   34.920   10.166   49.735
H   34.695   11.889   50.267
H   36.044   10.870   50.885
H   38.296   10.471   48.283
H   37.864   10.416   49.947
H   38.339   11.991   49.299

