%nproc=24
%mem=75GB
#p blyp/Def2SVP td=(nstates=5)

step_1751_chromophore_22 TDDFT with blyp functional

0 1
Mg   8.891   47.291   25.473
C   6.739   47.566   28.265
C   11.598   47.713   27.765
C   10.869   47.072   22.927
C   6.169   47.724   23.333
N   9.126   47.600   27.782
C   8.085   47.509   28.691
C   8.572   47.630   30.129
C   10.035   47.867   29.909
C   10.312   47.775   28.382
C   10.552   49.141   30.535
C   8.181   46.423   31.085
C   9.086   46.077   32.240
C   8.428   45.624   33.567
O   7.535   44.746   33.707
O   8.990   46.343   34.635
N   10.915   47.425   25.326
C   11.855   47.602   26.380
C   13.209   47.600   25.778
C   13.024   47.167   24.388
C   11.582   47.208   24.153
C   14.535   47.826   26.482
C   14.060   46.835   23.275
O   13.666   46.408   22.204
C   15.469   47.028   23.487
N   8.492   47.411   23.447
C   9.524   47.286   22.560
C   9.099   47.440   21.121
C   7.543   47.475   21.201
C   7.376   47.656   22.723
C   9.670   48.752   20.475
C   6.672   46.260   20.723
C   5.285   46.600   20.088
N   6.870   47.602   25.661
C   5.877   47.657   24.695
C   4.597   47.605   25.322
C   4.860   47.649   26.735
C   6.272   47.655   26.880
C   3.285   47.609   24.530
C   4.260   47.601   28.044
O   3.064   47.559   28.393
C   5.451   47.522   29.100
C   5.243   46.187   29.822
O   5.863   45.130   29.514
O   4.465   46.395   30.999
C   4.524   45.216   31.856
C   8.450   45.967   35.900
C   9.155   46.706   36.963
C   9.036   46.776   38.304
C   8.040   46.003   39.125
C   10.069   47.634   39.028
C   10.959   46.838   39.998
C   11.204   47.636   41.356
C   10.262   47.227   42.505
C   9.062   48.082   42.517
C   11.098   47.114   43.799
C   11.653   45.728   43.986
C   11.903   45.164   45.401
C   13.410   44.963   45.722
C   13.919   46.120   46.642
C   13.835   43.565   46.305
C   14.948   42.872   45.501
C   14.300   41.885   44.536
C   15.177   41.247   43.344
C   15.378   42.226   42.235
C   14.689   39.864   42.923
H   12.515   47.682   28.356
H   11.499   47.073   22.035
H   5.276   47.816   22.712
H   8.064   48.511   30.521
H   10.642   47.028   30.250
H   11.029   49.041   31.511
H   9.744   49.864   30.644
H   11.370   49.504   29.913
H   8.324   45.576   30.415
H   7.156   46.513   31.446
H   9.681   46.987   32.313
H   9.758   45.262   31.973
H   15.051   48.676   26.037
H   15.125   46.921   26.337
H   14.496   48.009   27.556
H   15.545   47.950   24.063
H   15.839   47.275   22.492
H   15.905   46.197   24.042
H   9.448   46.616   20.499
H   7.111   48.348   20.712
H   10.047   49.472   21.201
H   8.947   49.267   19.842
H   10.500   48.411   19.856
H   6.398   45.676   21.602
H   7.158   45.577   20.025
H   5.217   46.393   19.020
H   5.156   47.682   20.128
H   4.469   46.114   20.623
H   3.362   46.839   23.762
H   3.166   48.477   23.882
H   2.415   47.360   25.138
H   5.505   48.261   29.899
H   3.886   44.421   31.470
H   4.174   45.518   32.843
H   5.463   44.671   31.959
H   8.599   44.899   36.053
H   7.417   46.302   35.996
H   9.978   47.236   36.483
H   8.534   45.355   39.849
H   7.445   45.416   38.426
H   7.500   46.679   39.788
H   9.508   48.393   39.573
H   10.757   48.002   38.267
H   11.908   46.811   39.462
H   10.582   45.837   40.207
H   11.109   48.714   41.230
H   12.253   47.414   41.552
H   9.975   46.196   42.303
H   8.197   47.505   42.189
H   9.034   48.951   41.861
H   8.796   48.473   43.499
H   10.472   47.435   44.632
H   11.922   47.827   43.836
H   12.495   45.564   43.313
H   10.941   45.000   43.598
H   11.368   44.216   45.457
H   11.370   45.876   46.032
H   13.972   45.060   44.793
H   14.550   46.811   46.082
H   14.543   45.774   47.466
H   13.096   46.633   47.140
H   12.991   42.875   46.304
H   14.118   43.620   47.356
H   15.515   42.225   46.171
H   15.644   43.506   44.952
H   13.413   42.438   44.225
H   13.977   40.991   45.069
H   16.217   41.166   43.658
H   15.434   43.253   42.595
H   14.610   42.172   41.464
H   16.335   42.048   41.744
H   14.800   39.661   41.858
H   13.656   39.809   43.266
H   15.225   39.115   43.506

