%nproc=24
%mem=75GB
#p cam-b3lyp/Def2SVP td=(nstates=5)

step_1_chromophore_23 TDDFT with cam-b3lyp functional

0 1
Mg   -9.051   41.135   42.305
C   -8.305   37.722   41.487
C   -6.395   41.959   40.063
C   -10.135   44.306   42.063
C   -11.946   40.073   43.784
N   -7.597   39.954   40.945
C   -7.463   38.604   40.800
C   -6.307   38.235   39.806
C   -5.513   39.626   39.732
C   -6.600   40.578   40.205
C   -4.304   39.713   40.635
C   -6.799   37.608   38.512
C   -6.032   36.370   37.979
C   -4.965   36.511   36.796
O   -3.904   37.125   36.870
O   -5.458   35.835   35.714
N   -8.298   42.981   41.270
C   -7.133   43.080   40.481
C   -6.947   44.483   40.091
C   -8.039   45.194   40.728
C   -8.910   44.191   41.302
C   -5.896   45.033   39.202
C   -8.191   46.694   40.765
O   -7.269   47.371   40.369
C   -9.416   47.416   41.277
N   -10.805   41.957   42.741
C   -10.936   43.342   42.692
C   -12.323   43.689   43.238
C   -12.785   42.375   43.968
C   -11.750   41.407   43.503
C   -12.482   45.006   44.083
C   -14.257   41.901   43.766
C   -15.093   41.673   44.983
N   -9.921   39.324   42.710
C   -11.083   39.021   43.398
C   -11.161   37.575   43.682
C   -10.088   37.044   42.866
C   -9.417   38.142   42.319
C   -12.147   36.798   44.514
C   -9.423   35.768   42.469
O   -9.726   34.630   42.689
C   -8.338   36.191   41.484
C   -7.035   35.630   41.970
O   -6.575   36.040   43.014
O   -6.383   34.711   41.094
C   -4.994   34.305   41.467
C   -4.634   36.030   34.580
C   -5.307   35.735   33.249
C   -6.099   36.549   32.508
C   -6.121   38.040   32.810
C   -6.610   36.072   31.219
C   -5.681   35.691   30.071
C   -6.066   36.322   28.771
C   -5.458   37.781   28.507
C   -4.608   37.654   27.230
C   -6.644   38.772   28.415
C   -6.142   40.209   28.531
C   -6.707   40.993   29.689
C   -6.083   42.345   30.143
C   -6.054   42.695   31.636
C   -6.688   43.522   29.300
C   -5.631   44.373   28.618
C   -5.931   44.760   27.136
C   -5.834   46.278   26.931
C   -6.247   46.796   25.524
C   -4.347   46.792   27.217
H   -5.558   42.253   39.426
H   -10.616   45.285   42.096
H   -12.779   39.789   44.430
H   -5.573   37.574   40.266
H   -5.285   39.900   38.702
H   -4.645   39.948   41.643
H   -3.639   40.463   40.207
H   -3.691   38.823   40.781
H   -6.689   38.376   37.747
H   -7.878   37.478   38.595
H   -6.835   35.708   37.654
H   -5.483   35.835   38.754
H   -5.125   45.436   39.858
H   -6.291   45.904   38.679
H   -5.425   44.400   38.449
H   -9.416   48.496   41.131
H   -9.437   47.225   42.350
H   -10.403   47.092   40.949
H   -12.862   43.925   42.320
H   -12.529   42.468   45.023
H   -11.517   45.332   44.472
H   -13.223   44.867   44.870
H   -12.904   45.799   43.466
H   -14.251   40.982   43.180
H   -14.729   42.611   43.087
H   -15.224   40.601   45.129
H   -16.080   42.111   44.835
H   -14.721   42.061   45.931
H   -11.731   35.838   44.819
H   -13.036   36.669   43.896
H   -12.463   37.438   45.338
H   -8.660   35.877   40.491
H   -5.042   33.547   42.249
H   -4.445   35.144   41.894
H   -4.449   33.944   40.595
H   -3.796   35.334   34.602
H   -4.211   37.029   34.469
H   -5.309   34.769   32.745
H   -7.080   38.040   33.329
H   -6.199   38.534   31.841
H   -5.254   38.383   33.374
H   -7.326   36.763   30.775
H   -7.165   35.161   31.446
H   -5.592   34.621   29.888
H   -4.708   36.024   30.432
H   -7.152   36.366   28.697
H   -5.700   35.614   28.028
H   -4.703   38.018   29.256
H   -3.720   38.263   27.400
H   -5.122   38.264   26.487
H   -4.246   36.689   26.875
H   -7.351   38.456   29.183
H   -7.053   38.733   27.405
H   -6.358   40.726   27.596
H   -5.054   40.186   28.602
H   -6.858   40.358   30.562
H   -7.710   41.278   29.371
H   -5.019   42.195   29.957
H   -6.792   43.444   31.922
H   -5.133   43.222   31.883
H   -6.097   41.773   32.217
H   -7.379   44.048   29.959
H   -7.364   43.110   28.551
H   -4.675   43.869   28.761
H   -5.484   45.271   29.217
H   -6.948   44.532   26.817
H   -5.204   44.273   26.486
H   -6.481   46.793   27.641
H   -6.957   47.617   25.625
H   -6.864   46.098   24.959
H   -5.390   46.996   24.881
H   -3.695   45.921   27.165
H   -4.344   47.171   28.239
H   -4.026   47.569   26.523

