%nproc=24
%mem=75GB
#p wB97XD/Def2SVP td=(nstates=5)

step_251_chromophore_16 TDDFT with wB97XD functional

0 1
Mg   40.610   41.388   26.956
C   39.868   43.568   29.589
C   41.566   39.091   29.096
C   42.011   39.618   24.366
C   40.071   44.025   24.671
N   40.591   41.349   29.063
C   40.200   42.291   29.989
C   40.169   41.718   31.400
C   40.933   40.369   31.206
C   40.942   40.205   29.726
C   42.270   40.161   31.884
C   38.746   41.614   32.036
C   38.709   41.064   33.466
C   37.953   41.904   34.485
O   36.894   42.506   34.286
O   38.583   41.873   35.709
N   41.754   39.537   26.765
C   41.904   38.670   27.788
C   42.494   37.456   27.296
C   42.731   37.641   25.923
C   42.166   38.988   25.638
C   42.834   36.268   28.171
C   43.300   36.697   24.915
O   43.617   36.977   23.728
C   43.506   35.230   25.272
N   41.002   41.780   24.871
C   41.647   40.916   24.053
C   41.555   41.446   22.522
C   40.518   42.617   22.646
C   40.445   42.808   24.127
C   42.996   41.871   22.037
C   39.091   42.152   22.177
C   38.492   40.882   22.761
N   40.005   43.442   27.054
C   39.842   44.333   26.029
C   39.431   45.533   26.595
C   39.423   45.368   28.010
C   39.784   44.067   28.243
C   39.156   46.836   25.931
C   39.207   45.988   29.337
O   38.932   47.125   29.703
C   39.396   44.787   30.417
C   40.243   45.236   31.554
O   41.226   46.029   31.455
O   39.667   44.792   32.663
C   40.070   45.500   33.863
C   37.947   42.618   36.756
C   38.560   42.182   38.060
C   38.127   42.444   39.335
C   36.823   43.225   39.665
C   38.848   41.888   40.495
C   38.795   40.329   40.717
C   37.472   39.969   41.364
C   37.457   38.583   42.082
C   36.799   37.530   41.189
C   36.784   38.714   43.509
C   37.766   38.759   44.709
C   37.265   38.043   45.971
C   35.938   38.652   46.555
C   36.210   39.526   47.754
C   34.876   37.603   46.834
C   33.855   37.221   45.691
C   33.751   35.653   45.449
C   33.959   35.443   43.976
C   35.474   34.985   43.680
C   33.047   34.360   43.429
H   41.790   38.251   29.757
H   42.420   39.053   23.525
H   39.790   44.774   23.929
H   40.672   42.475   32.002
H   40.364   39.505   31.551
H   42.499   40.809   32.730
H   43.062   40.232   31.138
H   42.357   39.094   32.090
H   38.099   41.020   31.390
H   38.289   42.603   32.044
H   39.664   41.208   33.971
H   38.398   40.019   33.481
H   42.715   36.438   29.241
H   43.884   35.977   28.189
H   42.262   35.372   27.928
H   44.314   35.175   26.001
H   43.977   34.675   24.461
H   42.583   34.721   25.552
H   41.232   40.632   21.873
H   40.993   43.464   22.151
H   43.796   41.518   22.688
H   43.147   42.949   21.978
H   43.273   41.449   21.072
H   39.292   42.045   21.111
H   38.309   42.903   22.285
H   39.253   40.326   23.309
H   37.942   40.243   22.071
H   37.701   41.273   23.401
H   38.427   46.783   25.122
H   40.106   47.129   25.485
H   38.862   47.612   26.637
H   38.387   44.622   30.794
H   39.199   45.701   34.488
H   40.534   46.475   33.716
H   40.743   44.826   34.394
H   36.860   42.600   36.824
H   38.103   43.697   36.781
H   39.441   41.550   37.947
H   36.388   43.712   38.792
H   37.068   43.992   40.400
H   36.112   42.586   40.187
H   38.767   42.430   41.437
H   39.922   42.055   40.417
H   39.597   40.035   41.394
H   38.987   39.779   39.796
H   36.793   39.961   40.510
H   37.216   40.825   41.989
H   38.458   38.214   42.303
H   37.367   37.618   40.263
H   35.763   37.841   41.051
H   36.818   36.538   41.640
H   36.212   37.799   43.661
H   36.128   39.564   43.695
H   37.857   39.820   44.941
H   38.765   38.385   44.484
H   38.132   38.082   46.630
H   37.035   37.007   45.723
H   35.466   39.411   45.931
H   35.429   39.389   48.502
H   36.108   40.578   47.486
H   37.150   39.346   48.276
H   34.224   37.873   47.665
H   35.420   36.795   47.322
H   34.293   37.680   44.805
H   32.946   37.803   45.844
H   32.725   35.377   45.692
H   34.521   35.204   46.076
H   33.814   36.247   43.254
H   35.589   34.697   42.634
H   35.723   34.108   44.278
H   36.166   35.795   43.910
H   33.628   33.649   42.842
H   32.322   34.759   42.720
H   32.518   33.795   44.197

