%nproc=24
%mem=75GB
#p PBE1PBE/Def2SVP td=(nstates=5)

step_1301_chromophore_11 TDDFT with PBE1PBE functional

0 1
Mg   51.913   24.520   45.288
C   49.132   26.493   44.597
C   50.227   21.770   44.098
C   54.942   22.760   45.360
C   53.733   27.349   46.355
N   49.950   24.165   44.264
C   48.952   25.131   44.114
C   47.770   24.515   43.329
C   47.948   22.993   43.631
C   49.452   22.932   44.026
C   47.030   22.668   44.749
C   47.736   24.930   41.779
C   49.140   25.302   41.209
C   49.132   25.485   39.666
O   49.307   26.537   39.091
O   48.679   24.273   39.090
N   52.539   22.539   44.811
C   51.620   21.570   44.429
C   52.399   20.315   44.376
C   53.741   20.593   44.491
C   53.814   22.031   44.940
C   51.784   19.036   43.935
C   54.908   19.646   44.271
O   54.624   18.596   43.709
C   56.383   19.907   44.545
N   54.090   25.016   45.617
C   55.054   24.116   45.651
C   56.472   24.692   45.970
C   56.097   26.200   46.328
C   54.539   26.228   46.026
C   57.230   23.846   47.137
C   56.885   27.202   45.389
C   57.653   28.216   46.128
N   51.503   26.530   45.535
C   52.329   27.565   45.977
C   51.448   28.740   46.193
C   50.212   28.337   45.636
C   50.308   27.011   45.267
C   51.888   30.082   46.777
C   48.869   28.764   45.326
O   48.402   29.910   45.446
C   48.116   27.668   44.588
C   47.680   28.105   43.294
O   48.382   28.312   42.312
O   46.324   28.261   43.381
C   45.700   28.867   42.225
C   48.431   24.332   37.658
C   48.900   23.041   37.079
C   48.176   21.898   36.839
C   46.739   21.697   37.104
C   48.845   20.687   36.170
C   50.318   20.767   35.730
C   50.800   19.608   34.778
C   51.929   18.724   35.471
C   53.364   19.328   35.261
C   51.759   17.233   35.164
C   52.140   16.940   33.679
C   51.333   15.697   33.183
C   52.224   14.608   32.458
C   53.144   13.830   33.470
C   52.998   15.233   31.232
C   52.928   14.351   29.993
C   53.414   15.042   28.720
C   53.442   14.189   27.440
C   54.925   13.909   26.986
C   52.628   14.917   26.311
H   49.635   20.862   43.962
H   55.850   22.169   45.491
H   54.271   28.140   46.881
H   46.888   24.949   43.800
H   47.732   22.365   42.767
H   47.296   21.661   45.070
H   46.029   22.719   44.320
H   46.923   23.373   45.573
H   46.991   25.724   41.718
H   47.394   24.106   41.153
H   49.762   24.422   41.376
H   49.576   26.190   41.666
H   51.413   19.018   42.911
H   50.928   18.768   44.554
H   52.506   18.261   44.191
H   57.097   19.203   44.117
H   56.551   20.071   45.609
H   56.622   20.826   44.010
H   57.048   24.570   45.052
H   56.349   26.503   47.344
H   56.453   23.284   47.655
H   57.764   24.564   47.760
H   57.918   23.168   46.632
H   56.162   27.849   44.893
H   57.520   26.704   44.656
H   57.262   29.214   45.928
H   58.716   28.121   45.910
H   57.501   28.143   47.205
H   51.061   30.791   46.732
H   52.795   30.341   46.230
H   52.166   30.077   47.831
H   47.250   27.500   45.228
H   44.624   29.018   42.310
H   45.950   28.366   41.289
H   46.069   29.882   42.081
H   48.999   25.119   37.163
H   47.365   24.534   37.555
H   49.928   23.018   36.715
H   46.574   21.050   37.966
H   46.165   21.300   36.267
H   46.272   22.637   37.400
H   48.333   20.253   35.311
H   48.822   19.910   36.934
H   50.883   20.775   36.663
H   50.362   21.708   35.182
H   51.136   20.041   33.836
H   49.991   18.937   34.490
H   51.713   18.908   36.524
H   53.826   19.305   36.248
H   53.350   20.391   35.021
H   54.001   18.920   34.475
H   50.800   16.799   35.448
H   52.520   16.723   35.755
H   53.209   16.732   33.693
H   52.022   17.767   32.978
H   50.422   15.827   32.599
H   50.910   15.267   34.091
H   51.565   13.819   32.096
H   52.660   12.892   33.741
H   53.200   14.343   34.430
H   54.140   13.619   33.080
H   54.037   15.294   31.555
H   52.638   16.253   31.095
H   51.910   14.224   29.625
H   53.380   13.373   30.160
H   54.390   15.241   29.161
H   53.006   16.015   28.447
H   53.053   13.192   27.643
H   54.961   14.316   25.976
H   55.083   12.838   27.119
H   55.636   14.381   27.664
H   52.254   14.187   25.593
H   53.273   15.606   25.766
H   51.828   15.501   26.766

