%nproc=24
%mem=75GB
#p cam-b3lyp/Def2SVP td=(nstates=5)

step_151_chromophore_23 TDDFT with cam-b3lyp functional

0 1
Mg   -9.484   41.012   42.907
C   -9.038   37.708   41.965
C   -6.824   41.883   40.767
C   -10.414   44.292   42.885
C   -12.614   40.196   44.298
N   -8.018   39.908   41.634
C   -8.033   38.545   41.424
C   -6.824   38.081   40.504
C   -5.972   39.458   40.407
C   -6.958   40.527   40.961
C   -4.750   39.480   41.249
C   -7.325   37.504   39.115
C   -6.638   36.305   38.511
C   -5.415   36.669   37.619
O   -4.606   37.567   37.776
O   -5.336   35.851   36.563
N   -8.679   42.813   42.076
C   -7.559   42.969   41.275
C   -7.191   44.306   41.195
C   -8.229   45.060   41.825
C   -9.166   44.072   42.342
C   -6.117   44.870   40.227
C   -8.273   46.618   41.961
O   -7.410   47.239   41.345
C   -9.138   47.338   42.941
N   -11.364   42.077   43.364
C   -11.407   43.451   43.372
C   -12.784   43.867   44.003
C   -13.480   42.547   44.385
C   -12.414   41.516   44.025
C   -12.681   44.903   45.117
C   -14.901   42.302   43.708
C   -16.046   42.079   44.702
N   -10.489   39.319   43.386
C   -11.732   39.113   43.902
C   -11.919   37.671   44.012
C   -10.883   37.115   43.276
C   -10.095   38.131   42.834
C   -13.210   36.921   44.570
C   -10.392   35.809   42.890
O   -10.719   34.640   43.097
C   -9.110   36.120   42.012
C   -7.868   35.457   42.505
O   -7.307   35.807   43.568
O   -7.450   34.443   41.714
C   -6.472   33.521   42.357
C   -4.642   36.414   35.370
C   -5.611   36.287   34.165
C   -6.642   37.049   33.801
C   -7.054   38.307   34.610
C   -7.362   36.893   32.522
C   -6.791   37.733   31.389
C   -7.785   38.760   30.777
C   -7.309   40.234   30.762
C   -6.152   40.403   29.726
C   -8.460   41.221   30.378
C   -8.427   42.545   31.213
C   -8.628   43.737   30.266
C   -8.341   45.073   31.026
C   -9.642   45.872   31.218
C   -7.287   45.979   30.349
C   -5.754   45.816   30.891
C   -4.853   45.270   29.731
C   -4.165   46.310   28.877
C   -4.247   46.219   27.300
C   -2.651   46.367   29.268
H   -5.908   42.204   40.266
H   -10.646   45.336   43.108
H   -13.560   39.960   44.791
H   -6.292   37.279   41.016
H   -5.877   39.835   39.389
H   -4.410   38.611   41.812
H   -4.693   40.339   41.917
H   -4.000   39.647   40.476
H   -7.061   38.290   38.406
H   -8.403   37.418   38.984
H   -7.342   35.693   37.947
H   -6.313   35.710   39.365
H   -6.522   45.657   39.590
H   -5.717   44.146   39.517
H   -5.307   45.126   40.910
H   -8.471   48.075   43.389
H   -9.589   46.828   43.792
H   -9.932   47.811   42.363
H   -13.321   44.410   43.226
H   -13.444   42.413   45.466
H   -12.790   44.470   46.111
H   -13.015   45.924   44.935
H   -11.618   45.087   45.271
H   -14.824   41.427   43.063
H   -15.255   43.138   43.104
H   -16.381   41.047   44.597
H   -16.915   42.724   44.574
H   -15.661   42.278   45.702
H   -13.981   37.690   44.580
H   -13.093   36.508   45.571
H   -13.525   36.077   43.955
H   -9.228   35.854   40.961
H   -6.097   32.709   41.733
H   -7.035   33.058   43.167
H   -5.641   34.093   42.770
H   -3.699   35.886   35.228
H   -4.437   37.477   35.496
H   -5.422   35.439   33.507
H   -8.132   38.319   34.768
H   -6.682   39.202   34.111
H   -6.627   38.375   35.611
H   -8.386   37.130   32.809
H   -7.328   35.858   32.182
H   -6.564   37.048   30.573
H   -5.938   38.273   31.800
H   -8.749   38.631   31.269
H   -7.925   38.422   29.750
H   -6.886   40.377   31.756
H   -6.066   39.463   29.181
H   -5.209   40.672   30.201
H   -6.309   41.197   28.995
H   -9.447   40.766   30.467
H   -8.548   41.403   29.307
H   -7.475   42.536   31.745
H   -9.196   42.406   31.973
H   -9.667   43.852   29.957
H   -7.984   43.628   29.393
H   -8.041   44.791   32.035
H   -9.426   46.827   31.699
H   -10.211   45.290   31.943
H   -10.222   45.886   30.295
H   -7.509   47.040   30.465
H   -7.340   45.730   29.289
H   -5.636   45.167   31.759
H   -5.451   46.788   31.281
H   -5.453   44.615   29.099
H   -4.095   44.644   30.201
H   -4.426   47.321   29.192
H   -4.748   47.074   26.846
H   -4.858   45.397   26.925
H   -3.259   46.168   26.842
H   -2.058   45.715   28.627
H   -2.469   45.992   30.275
H   -2.337   47.408   29.192

