%nproc=24
%mem=75GB
#p blyp/Def2SVP td=(nstates=5)

step_601_chromophore_16 TDDFT with blyp functional

0 1
Mg   40.848   41.335   26.905
C   39.822   43.800   29.141
C   41.216   39.140   29.711
C   42.015   39.054   24.764
C   40.837   43.691   24.362
N   40.614   41.475   29.208
C   40.193   42.614   29.848
C   39.973   42.341   31.357
C   40.631   40.881   31.556
C   40.834   40.426   30.096
C   41.963   40.857   32.362
C   38.504   42.577   31.802
C   38.145   41.930   33.193
C   37.499   42.798   34.280
O   36.474   43.427   34.135
O   38.109   42.734   35.512
N   41.511   39.396   27.175
C   41.583   38.665   28.425
C   42.053   37.361   28.117
C   42.264   37.298   26.678
C   41.904   38.597   26.144
C   42.211   36.225   29.133
C   42.743   36.113   25.905
O   42.720   36.007   24.714
C   43.225   34.874   26.514
N   41.492   41.417   24.899
C   41.858   40.274   24.184
C   41.893   40.572   22.699
C   41.615   42.076   22.604
C   41.238   42.405   24.033
C   43.158   39.979   21.976
C   40.511   42.437   21.562
C   39.022   42.267   22.009
N   40.374   43.309   26.710
C   40.526   44.119   25.681
C   40.091   45.490   26.103
C   39.837   45.396   27.459
C   40.013   44.062   27.804
C   39.894   46.717   25.184
C   39.370   46.169   28.602
O   39.151   47.416   28.745
C   39.413   45.160   29.783
C   40.363   45.582   30.849
O   41.611   45.367   30.808
O   39.683   46.017   31.975
C   40.419   45.850   33.311
C   37.495   43.284   36.618
C   38.120   42.675   37.788
C   37.988   43.094   39.081
C   37.266   44.370   39.340
C   38.766   42.572   40.277
C   38.635   41.079   40.419
C   37.790   40.678   41.579
C   38.560   40.015   42.703
C   39.240   38.638   42.423
C   37.619   39.939   43.964
C   38.453   40.348   45.170
C   38.488   39.281   46.270
C   37.335   39.406   47.327
C   37.801   40.067   48.608
C   36.672   38.072   47.642
C   35.173   37.981   47.135
C   34.948   36.746   46.215
C   33.988   36.932   45.024
C   34.329   35.886   43.870
C   32.481   36.897   45.394
H   41.059   38.402   30.499
H   42.470   38.334   24.081
H   40.776   44.494   23.625
H   40.564   43.090   31.883
H   39.862   40.199   31.919
H   42.067   41.885   32.708
H   42.835   40.580   31.770
H   41.993   40.214   33.241
H   37.901   42.083   31.041
H   38.415   43.628   32.079
H   38.997   41.455   33.680
H   37.634   40.994   32.969
H   41.494   35.424   28.955
H   42.054   36.587   30.149
H   43.249   35.902   29.206
H   44.140   35.062   27.076
H   43.466   34.154   25.732
H   42.512   34.464   27.229
H   41.051   39.998   22.313
H   42.528   42.575   22.281
H   43.907   39.489   22.599
H   43.622   40.825   21.470
H   42.717   39.337   21.214
H   40.592   41.753   20.718
H   40.689   43.443   21.183
H   38.802   42.407   23.067
H   38.541   41.349   21.673
H   38.531   43.056   21.438
H   39.307   46.435   24.310
H   40.902   47.031   24.914
H   39.390   47.458   25.804
H   38.470   45.165   30.330
H   39.840   45.278   34.035
H   40.497   46.879   33.665
H   41.471   45.564   33.331
H   36.454   42.983   36.499
H   37.656   44.362   36.604
H   38.812   41.886   37.492
H   36.453   44.135   40.027
H   36.903   44.870   38.442
H   37.900   45.115   39.822
H   38.534   42.965   41.267
H   39.801   42.852   40.085
H   39.637   40.712   40.642
H   38.293   40.607   39.498
H   37.229   39.805   41.244
H   37.073   41.475   41.779
H   39.381   40.706   42.892
H   39.101   38.256   41.412
H   38.775   37.896   43.072
H   40.320   38.601   42.569
H   37.147   38.985   44.202
H   36.831   40.687   43.877
H   37.975   41.214   45.626
H   39.465   40.706   44.979
H   39.492   39.329   46.694
H   38.384   38.344   45.724
H   36.538   40.073   46.998
H   37.127   40.906   48.784
H   38.776   40.546   48.516
H   37.876   39.329   49.406
H   36.617   37.909   48.719
H   37.128   37.139   47.311
H   34.835   38.845   46.562
H   34.442   37.787   47.919
H   34.495   35.922   46.766
H   35.872   36.284   45.866
H   34.164   37.888   44.532
H   34.626   34.966   44.374
H   35.198   36.240   43.314
H   33.473   35.745   43.210
H   31.990   36.077   44.871
H   32.086   37.872   45.107
H   32.301   36.679   46.446

