%nproc=24
%mem=75GB
#p blyp/Def2SVP td=(nstates=5)

step_1601_chromophore_19 TDDFT with blyp functional

0 1
Mg   25.938   49.631   26.261
C   23.763   50.477   28.821
C   28.211   48.571   28.509
C   28.150   49.109   23.685
C   23.680   50.925   23.912
N   26.025   49.758   28.521
C   24.930   49.929   29.312
C   25.281   49.550   30.754
C   26.762   49.026   30.664
C   27.051   49.125   29.107
C   27.885   49.722   31.552
C   24.218   48.566   31.437
C   23.752   49.023   32.856
C   24.704   49.665   33.963
O   25.256   50.793   33.895
O   25.165   48.825   34.979
N   27.879   48.957   26.139
C   28.586   48.414   27.167
C   29.810   47.799   26.720
C   29.841   48.007   25.239
C   28.592   48.705   24.972
C   30.810   46.999   27.617
C   30.940   47.547   24.286
O   30.837   47.743   23.100
C   32.015   46.668   24.789
N   25.950   49.975   24.061
C   26.975   49.727   23.267
C   26.689   50.030   21.829
C   25.158   50.305   21.848
C   24.826   50.367   23.317
C   27.572   51.184   21.283
C   24.362   49.206   21.058
C   24.063   47.865   21.761
N   24.142   50.535   26.323
C   23.348   51.018   25.272
C   22.084   51.547   25.840
C   22.185   51.331   27.215
C   23.508   50.793   27.456
C   20.916   52.067   25.084
C   21.498   51.580   28.464
O   20.431   52.135   28.661
C   22.502   51.002   29.573
C   22.838   52.087   30.632
O   23.621   53.056   30.513
O   22.042   51.902   31.792
C   22.268   52.883   32.838
C   26.086   49.328   36.102
C   25.462   49.110   37.532
C   25.859   49.597   38.713
C   27.218   50.372   38.875
C   25.315   49.216   40.028
C   25.953   48.063   40.787
C   25.279   46.741   40.370
C   25.980   45.502   41.136
C   26.403   44.404   40.077
C   25.105   44.987   42.265
C   25.963   44.516   43.522
C   25.389   44.852   44.915
C   26.282   45.954   45.618
C   26.189   45.887   47.145
C   26.063   47.506   45.054
C   27.326   48.389   45.210
C   27.463   49.475   44.111
C   28.219   50.773   44.619
C   27.745   52.057   43.884
C   29.736   50.485   44.589
H   28.813   47.925   29.152
H   28.827   48.813   22.881
H   22.897   51.284   23.241
H   25.295   50.526   31.238
H   26.872   47.977   30.936
H   28.565   48.982   31.972
H   27.477   50.329   32.360
H   28.603   50.206   30.890
H   24.695   47.587   31.471
H   23.272   48.378   30.930
H   23.398   48.038   33.159
H   22.786   49.526   32.815
H   31.793   47.444   27.461
H   30.749   45.939   27.373
H   30.697   47.004   28.701
H   32.695   47.212   25.445
H   32.693   46.364   23.991
H   31.562   45.777   25.223
H   26.950   49.252   21.111
H   24.901   51.290   21.458
H   28.487   51.172   21.875
H   27.067   52.133   21.463
H   27.797   50.984   20.236
H   24.879   48.893   20.151
H   23.393   49.630   20.797
H   24.018   46.950   21.171
H   23.076   47.992   22.207
H   24.733   47.676   22.600
H   21.001   53.151   25.158
H   20.064   51.770   25.695
H   20.714   51.710   24.074
H   21.964   50.257   30.159
H   23.004   52.485   33.537
H   21.391   52.976   33.479
H   22.629   53.863   32.527
H   26.325   50.384   35.970
H   26.988   48.741   35.931
H   24.462   48.678   37.498
H   26.898   51.329   39.287
H   27.789   50.632   37.984
H   27.858   49.748   39.499
H   24.254   48.985   39.926
H   25.373   50.110   40.649
H   25.697   48.171   41.841
H   27.016   47.867   40.648
H   25.481   46.687   39.300
H   24.233   46.972   40.570
H   26.980   45.778   41.469
H   27.457   44.155   40.198
H   26.195   44.707   39.051
H   25.811   43.497   40.205
H   24.574   44.057   42.062
H   24.361   45.717   42.585
H   26.945   44.946   43.324
H   26.016   43.434   43.397
H   25.244   43.921   45.463
H   24.357   45.192   44.826
H   27.308   45.704   45.347
H   27.074   45.832   47.779
H   25.610   45.007   47.424
H   25.710   46.754   47.600
H   25.314   47.982   45.686
H   25.725   47.491   44.018
H   28.216   47.765   45.128
H   27.250   48.792   46.220
H   26.473   49.836   43.832
H   27.973   49.279   43.168
H   28.012   50.942   45.676
H   27.438   51.869   42.855
H   28.597   52.735   43.833
H   26.937   52.511   44.458
H   30.092   50.444   43.560
H   30.050   49.611   45.160
H   30.262   51.325   45.041

