%nproc=24
%mem=75GB
#p cam-b3lyp/Def2SVP td=(nstates=5)

step_651_chromophore_13 TDDFT with cam-b3lyp functional

0 1
Mg   46.358   24.784   28.801
C   46.924   27.188   31.217
C   45.387   22.580   31.092
C   46.258   22.633   26.244
C   47.453   27.318   26.460
N   46.344   24.831   30.912
C   46.461   25.982   31.742
C   46.104   25.653   33.199
C   45.763   24.159   33.125
C   45.852   23.828   31.617
C   46.615   23.290   34.061
C   45.021   26.613   33.866
C   45.361   27.314   35.194
C   44.274   27.270   36.345
O   43.062   27.254   36.221
O   44.901   27.065   37.508
N   45.932   22.849   28.727
C   45.514   22.075   29.750
C   44.987   20.805   29.281
C   45.404   20.741   27.932
C   45.868   22.122   27.540
C   44.066   19.915   30.022
C   45.193   19.612   26.940
O   45.564   19.729   25.712
C   44.631   18.304   27.350
N   46.697   24.962   26.720
C   46.638   23.879   25.870
C   47.079   24.228   24.407
C   46.987   25.792   24.429
C   47.091   25.996   25.970
C   48.557   23.661   24.228
C   45.744   26.388   23.727
C   44.653   27.161   24.511
N   47.102   26.804   28.763
C   47.418   27.688   27.734
C   47.781   28.928   28.340
C   47.626   28.846   29.711
C   47.215   27.523   29.867
C   48.288   30.119   27.605
C   47.703   29.537   31.067
O   48.175   30.631   31.362
C   47.342   28.407   32.063
C   48.517   28.087   32.938
O   49.441   27.350   32.602
O   48.269   28.565   34.241
C   49.177   28.261   35.348
C   44.087   27.066   38.718
C   44.105   25.808   39.569
C   43.962   25.707   40.900
C   43.350   26.828   41.734
C   43.980   24.373   41.644
C   42.707   23.562   41.255
C   42.120   22.772   42.446
C   40.553   22.811   42.450
C   39.889   22.222   41.146
C   39.934   24.295   42.718
C   38.899   24.394   43.888
C   39.471   25.210   45.109
C   39.610   24.403   46.387
C   38.273   24.028   46.972
C   40.616   25.068   47.409
C   41.525   24.053   48.084
C   42.975   24.524   48.032
C   43.652   24.365   46.615
C   44.793   23.382   46.847
C   44.089   25.718   46.047
H   44.976   21.843   31.784
H   46.341   22.007   25.353
H   47.819   27.898   25.609
H   47.014   25.795   33.783
H   44.728   23.947   33.392
H   47.343   23.909   34.586
H   47.206   22.589   33.473
H   46.027   22.796   34.835
H   44.139   25.993   34.022
H   44.876   27.504   33.256
H   45.503   28.367   34.951
H   46.297   26.897   35.565
H   43.774   20.335   30.984
H   44.607   18.989   30.221
H   43.121   19.748   29.506
H   45.109   17.750   28.157
H   44.350   17.718   26.475
H   43.690   18.587   27.821
H   46.478   23.844   23.582
H   47.908   26.243   24.060
H   49.247   24.375   23.776
H   48.593   22.831   23.523
H   48.926   23.353   25.206
H   45.262   25.687   23.045
H   46.192   27.167   23.110
H   44.902   28.217   24.401
H   44.728   26.878   25.561
H   43.612   27.007   24.227
H   47.465   30.799   27.381
H   48.934   29.952   26.743
H   48.825   30.785   28.280
H   46.569   28.848   32.691
H   49.425   29.179   35.881
H   50.126   27.849   35.006
H   48.704   27.529   36.003
H   43.071   27.457   38.663
H   44.520   27.829   39.365
H   44.481   24.916   39.068
H   43.921   27.007   42.645
H   42.308   26.561   41.915
H   43.435   27.745   41.150
H   44.143   24.395   42.721
H   44.781   23.894   41.081
H   43.017   22.746   40.603
H   41.937   24.191   40.808
H   42.448   23.109   43.429
H   42.367   21.716   42.336
H   40.353   22.342   43.414
H   38.803   22.282   41.217
H   40.203   21.218   40.859
H   40.188   22.866   40.320
H   39.416   24.610   41.812
H   40.793   24.962   42.788
H   38.688   23.413   44.313
H   37.983   24.862   43.526
H   38.789   26.046   45.265
H   40.427   25.719   44.984
H   40.028   23.432   46.121
H   38.265   24.349   48.014
H   38.000   22.979   46.862
H   37.470   24.679   46.624
H   40.043   25.649   48.132
H   41.207   25.884   46.994
H   41.262   23.034   47.799
H   41.292   24.197   49.139
H   43.470   23.891   48.769
H   43.018   25.546   48.408
H   42.923   23.959   45.914
H   45.611   23.558   46.148
H   44.568   22.325   46.704
H   45.206   23.277   47.850
H   44.974   25.612   45.419
H   44.334   26.365   46.889
H   43.298   26.172   45.451

