%nproc=24
%mem=75GB
#p cam-b3lyp/Def2SVP td=(nstates=5)

step_501_chromophore_18 TDDFT with cam-b3lyp functional

0 1
Mg   35.283   49.281   25.051
C   35.195   47.666   28.213
C   33.707   52.002   26.671
C   34.967   50.740   22.150
C   36.562   46.363   23.656
N   34.512   49.784   27.241
C   34.714   48.964   28.324
C   34.312   49.604   29.642
C   33.713   50.964   29.080
C   34.022   50.951   27.575
C   32.255   51.133   29.497
C   35.544   49.803   30.552
C   35.369   49.622   32.108
C   33.943   49.728   32.698
O   33.234   48.779   33.097
O   33.454   51.009   32.612
N   34.521   51.157   24.482
C   33.850   52.078   25.287
C   33.479   53.230   24.450
C   33.939   52.906   23.132
C   34.542   51.565   23.255
C   32.731   54.352   24.940
C   33.825   53.734   21.856
O   34.187   53.275   20.761
C   33.447   55.162   21.913
N   35.610   48.601   23.151
C   35.500   49.438   22.116
C   35.837   48.716   20.771
C   36.520   47.409   21.285
C   36.224   47.410   22.752
C   34.606   48.523   19.814
C   38.059   47.613   21.011
C   38.991   48.197   22.128
N   35.884   47.433   25.749
C   36.379   46.328   25.033
C   36.565   45.204   25.984
C   36.063   45.684   27.188
C   35.691   47.006   27.065
C   36.875   43.872   25.494
C   35.713   45.231   28.532
O   35.831   44.105   29.002
C   35.097   46.509   29.273
C   33.719   46.240   29.751
O   32.680   46.500   29.151
O   33.784   45.649   31.027
C   32.592   45.220   31.723
C   32.158   51.182   33.261
C   31.826   52.626   33.651
C   30.831   53.157   34.493
C   29.959   52.265   35.294
C   30.376   54.596   34.582
C   31.328   55.416   35.465
C   31.539   56.858   34.846
C   31.586   57.944   35.912
C   33.008   58.175   36.412
C   30.842   59.275   35.576
C   29.368   59.242   35.778
C   29.063   59.877   37.183
C   28.445   61.315   37.113
C   29.537   62.239   37.718
C   27.121   61.493   37.930
C   26.129   62.546   37.301
C   26.135   63.998   37.894
C   26.854   65.056   36.961
C   27.190   66.331   37.702
C   26.041   65.389   35.649
H   33.453   52.963   27.124
H   34.909   51.178   21.151
H   37.004   45.526   23.112
H   33.561   49.024   30.179
H   34.218   51.759   29.628
H   32.033   52.058   30.028
H   31.832   50.331   30.102
H   31.681   51.225   28.574
H   35.986   50.787   30.396
H   36.221   49.060   30.129
H   35.896   50.412   32.642
H   35.970   48.748   32.359
H   33.301   55.240   24.666
H   32.412   54.189   25.969
H   31.805   54.222   24.379
H   32.393   55.325   22.140
H   33.612   55.618   20.937
H   33.970   55.607   22.759
H   36.506   49.471   20.358
H   36.191   46.532   20.727
H   34.580   49.323   19.074
H   33.726   48.440   20.451
H   34.764   47.566   19.317
H   38.191   48.072   20.031
H   38.444   46.593   21.030
H   39.609   48.913   21.587
H   39.650   47.448   22.569
H   38.496   48.745   22.929
H   36.194   43.637   24.677
H   36.668   43.186   26.316
H   37.945   43.757   25.323
H   35.756   46.639   30.132
H   32.374   44.160   31.595
H   31.777   45.932   31.592
H   32.871   45.444   32.753
H   32.110   50.600   34.181
H   31.484   50.780   32.505
H   32.296   53.445   33.106
H   30.202   52.357   36.353
H   30.167   51.240   34.985
H   28.906   52.465   35.097
H   29.343   54.752   34.894
H   30.363   54.894   33.534
H   32.282   54.901   35.579
H   30.943   55.385   36.484
H   30.715   57.017   34.150
H   32.482   56.956   34.309
H   31.152   57.516   36.816
H   33.030   57.796   37.434
H   33.408   59.187   36.340
H   33.705   57.460   35.976
H   30.997   59.574   34.539
H   31.294   60.095   36.134
H   29.144   58.175   35.798
H   28.793   59.853   35.084
H   29.977   59.858   37.778
H   28.328   59.332   37.775
H   28.321   61.707   36.103
H   29.119   63.237   37.843
H   30.330   62.489   37.013
H   30.069   61.875   38.597
H   27.416   61.935   38.882
H   26.619   60.550   38.146
H   25.086   62.245   37.399
H   26.475   62.599   36.268
H   26.569   63.934   38.892
H   25.143   64.423   38.046
H   27.805   64.577   36.728
H   27.837   66.266   38.577
H   26.191   66.728   37.881
H   27.672   66.974   36.966
H   26.301   64.740   34.813
H   26.154   66.426   35.331
H   24.978   65.255   35.847

