%nproc=24
%mem=75GB
#p blyp/Def2SVP td=(nstates=5)

step_101_chromophore_12 TDDFT with blyp functional

0 1
Mg   48.146   15.453   27.556
C   45.802   15.570   30.264
C   50.228   17.492   29.424
C   50.251   15.344   25.017
C   45.548   13.968   25.707
N   47.996   16.399   29.605
C   47.023   16.305   30.545
C   47.379   16.943   31.913
C   48.720   17.796   31.570
C   49.045   17.222   30.125
C   48.578   19.263   31.515
C   47.708   15.907   33.052
C   47.967   16.576   34.469
C   48.954   16.061   35.478
O   49.554   15.004   35.285
O   48.998   16.691   36.677
N   50.008   16.189   27.290
C   50.738   16.988   28.193
C   52.040   17.276   27.569
C   52.160   16.477   26.378
C   50.788   15.982   26.141
C   53.054   18.171   28.305
C   53.354   16.215   25.470
O   53.447   15.448   24.486
C   54.647   16.962   25.827
N   47.877   14.678   25.698
C   48.941   14.877   24.799
C   48.567   14.290   23.364
C   47.105   13.620   23.681
C   46.758   14.180   25.079
C   48.569   15.357   22.177
C   47.119   12.051   23.679
C   47.587   11.271   22.413
N   46.073   14.947   27.794
C   45.164   14.296   26.954
C   43.923   13.986   27.686
C   44.172   14.380   28.985
C   45.502   14.925   28.994
C   42.720   13.319   27.044
C   43.552   14.600   30.268
O   42.336   14.322   30.556
C   44.592   15.315   31.184
C   43.947   16.479   31.761
O   43.213   17.262   31.176
O   44.245   16.508   33.100
C   43.704   17.613   33.925
C   50.018   16.232   37.657
C   50.431   17.488   38.394
C   51.477   17.858   39.167
C   52.625   16.947   39.576
C   51.422   19.174   39.854
C   52.633   20.134   39.648
C   52.360   21.580   40.029
C   53.524   22.477   39.544
C   54.142   23.192   40.762
C   53.095   23.573   38.553
C   52.730   22.974   37.214
C   52.469   24.154   36.185
C   52.691   23.676   34.698
C   54.145   23.839   34.367
C   51.667   24.358   33.772
C   51.865   24.121   32.265
C   50.601   23.578   31.604
C   50.929   23.002   30.204
C   49.553   22.933   29.515
C   51.569   21.566   30.427
H   50.824   18.287   29.875
H   51.042   15.250   24.271
H   44.832   13.419   25.093
H   46.617   17.672   32.190
H   49.550   17.511   32.217
H   48.303   19.614   30.520
H   49.556   19.703   31.707
H   47.782   19.543   32.205
H   48.654   15.455   32.753
H   46.834   15.265   33.156
H   47.022   16.673   35.004
H   48.297   17.572   34.174
H   53.614   17.405   28.842
H   52.592   18.889   28.982
H   53.617   18.861   27.677
H   54.556   18.046   25.763
H   55.459   16.679   25.157
H   54.975   16.608   26.804
H   49.344   13.570   23.109
H   46.310   14.000   23.039
H   49.498   15.197   21.629
H   48.456   16.362   22.584
H   47.788   15.151   21.444
H   46.091   11.824   23.959
H   47.818   11.738   24.455
H   47.533   11.919   21.538
H   46.967   10.416   22.147
H   48.622   10.953   22.530
H   43.153   12.408   26.632
H   42.294   13.911   26.234
H   41.851   13.047   27.644
H   44.891   14.690   32.026
H   43.499   18.528   33.369
H   44.334   17.767   34.801
H   42.810   17.118   34.304
H   50.881   15.778   37.170
H   49.563   15.604   38.422
H   49.704   18.297   38.319
H   53.520   17.151   38.987
H   52.413   15.906   39.332
H   52.650   16.962   40.665
H   51.277   18.903   40.900
H   50.609   19.820   39.524
H   53.080   19.899   38.682
H   53.302   19.768   40.427
H   52.328   21.790   41.098
H   51.391   21.946   39.689
H   54.291   21.908   39.020
H   54.317   22.568   41.638
H   53.374   23.913   41.044
H   55.105   23.652   40.544
H   53.926   24.278   38.568
H   52.162   24.016   38.900
H   51.798   22.424   37.084
H   53.447   22.288   36.761
H   53.011   25.080   36.376
H   51.399   24.356   36.206
H   52.537   22.616   34.497
H   54.566   23.013   33.794
H   54.889   24.182   35.086
H   54.119   24.610   33.597
H   51.725   25.439   33.900
H   50.630   24.091   33.975
H   52.685   23.451   32.008
H   52.036   25.099   31.814
H   50.055   24.486   31.349
H   50.039   23.054   32.376
H   51.636   23.652   29.689
H   49.647   22.487   28.525
H   49.118   23.931   29.576
H   48.902   22.197   29.985
H   52.536   21.558   29.923
H   50.980   20.831   29.880
H   51.571   21.243   31.468

