%nproc=24
%mem=50gb
#p ZINDO=(nstates=5)

step_1651_chromophore_23 ZINDO

0 1
Mg   -9.952   40.315   41.482
C   -8.843   37.061   40.550
C   -7.351   41.494   39.485
C   -11.287   43.342   41.772
C   -12.928   38.818   42.612
N   -8.224   39.346   40.170
C   -7.959   38.039   40.022
C   -6.653   37.799   39.133
C   -6.128   39.304   39.035
C   -7.330   40.116   39.615
C   -4.832   39.701   39.789
C   -7.000   37.118   37.738
C   -6.001   35.982   37.396
C   -4.821   36.267   36.436
O   -3.863   36.967   36.591
O   -5.045   35.565   35.294
N   -9.383   42.151   40.839
C   -8.250   42.433   40.039
C   -8.158   43.834   39.821
C   -9.355   44.434   40.416
C   -10.075   43.277   41.023
C   -7.016   44.614   39.178
C   -9.695   45.885   40.464
O   -8.869   46.642   39.994
C   -11.095   46.419   40.841
N   -11.922   40.940   42.091
C   -12.180   42.291   42.260
C   -13.549   42.507   43.026
C   -14.095   41.078   43.236
C   -12.918   40.202   42.707
C   -13.494   43.425   44.328
C   -15.402   40.781   42.449
C   -16.302   39.833   43.258
N   -10.756   38.388   41.628
C   -12.016   37.966   42.097
C   -11.975   36.465   42.181
C   -10.741   36.142   41.631
C   -10.134   37.302   41.164
C   -13.004   35.623   42.810
C   -9.890   35.039   41.286
O   -9.954   33.864   41.600
C   -8.656   35.502   40.461
C   -7.333   35.164   41.193
O   -7.004   35.589   42.339
O   -6.607   34.247   40.422
C   -5.217   34.003   40.904
C   -4.319   35.825   34.078
C   -5.275   35.932   32.835
C   -6.230   36.803   32.515
C   -6.818   38.063   33.270
C   -6.721   36.761   31.069
C   -5.851   37.451   29.979
C   -6.143   36.836   28.576
C   -5.900   37.874   27.481
C   -4.805   37.403   26.409
C   -7.187   38.499   26.833
C   -7.982   39.474   27.731
C   -9.471   39.086   27.779
C   -10.103   39.068   29.236
C   -10.941   37.811   29.410
C   -10.996   40.302   29.578
C   -10.410   41.235   30.660
C   -10.173   42.620   30.011
C   -8.659   43.014   29.884
C   -7.907   43.354   31.184
C   -8.499   44.183   28.808
H   -6.447   41.858   38.992
H   -11.720   44.315   42.011
H   -13.856   38.337   42.927
H   -5.958   37.278   39.791
H   -5.941   39.592   38.001
H   -4.071   40.116   39.128
H   -4.286   38.844   40.184
H   -5.152   40.358   40.598
H   -6.895   37.888   36.973
H   -8.028   36.756   37.770
H   -6.625   35.151   37.066
H   -5.641   35.615   38.358
H   -7.428   45.021   38.254
H   -6.146   43.981   39.002
H   -6.688   45.463   39.778
H   -11.378   46.259   41.881
H   -11.857   45.932   40.232
H   -11.293   47.488   40.764
H   -14.245   43.020   42.363
H   -14.239   40.984   44.313
H   -12.496   43.748   44.626
H   -13.914   42.900   45.186
H   -14.006   44.355   44.082
H   -15.205   40.331   41.475
H   -15.951   41.710   42.295
H   -17.285   40.229   43.514
H   -15.893   39.395   44.168
H   -16.472   38.972   42.611
H   -13.167   35.977   43.828
H   -12.605   34.610   42.871
H   -13.922   35.644   42.223
H   -8.523   35.116   39.450
H   -4.729   34.960   41.090
H   -4.633   33.380   40.228
H   -5.427   33.481   41.838
H   -3.746   34.918   33.889
H   -3.743   36.747   34.161
H   -5.033   35.234   32.034
H   -6.989   38.918   32.616
H   -6.312   38.419   34.167
H   -7.824   37.707   33.493
H   -7.677   37.278   30.989
H   -6.954   35.729   30.806
H   -4.886   37.184   30.408
H   -5.990   38.532   29.990
H   -7.212   36.623   28.555
H   -5.501   35.966   28.434
H   -5.399   38.759   27.873
H   -3.830   37.836   26.634
H   -5.053   37.766   25.412
H   -4.660   36.323   26.367
H   -7.784   37.625   26.576
H   -6.825   39.023   25.948
H   -7.814   40.509   27.434
H   -7.626   39.450   28.761
H   -9.705   38.128   27.314
H   -10.033   39.844   27.234
H   -9.328   38.904   29.984
H   -11.823   37.871   28.773
H   -11.223   37.751   30.462
H   -10.281   36.966   29.211
H   -11.910   40.020   30.100
H   -11.370   40.821   28.695
H   -9.518   40.796   31.108
H   -11.147   41.411   31.444
H   -10.588   43.406   30.642
H   -10.770   42.759   29.110
H   -8.125   42.212   29.373
H   -6.904   43.751   31.033
H   -7.785   42.463   31.801
H   -8.357   44.114   31.823
H   -7.603   44.754   29.053
H   -9.348   44.865   28.827
H   -8.433   43.712   27.827

