%nproc=24
%mem=75GB
#p cam-b3lyp/Def2SVP td=(nstates=5)

step_1801_chromophore_2 TDDFT with cam-b3lyp functional

0 1
Mg   2.096   -0.301   41.956
C   5.432   0.633   41.634
C   1.262   2.874   40.768
C   -0.994   -1.259   41.848
C   3.209   -3.415   43.041
N   3.262   1.437   41.266
C   4.600   1.646   41.223
C   5.061   2.926   40.543
C   3.697   3.737   40.477
C   2.640   2.612   40.913
C   3.589   4.933   41.375
C   5.898   3.022   39.188
C   5.849   1.776   38.264
C   5.580   1.980   36.818
O   6.191   2.811   36.108
O   4.545   1.173   36.371
N   0.318   0.689   41.432
C   0.159   1.979   40.989
C   -1.149   2.227   40.596
C   -1.859   1.053   41.079
C   -0.863   0.119   41.492
C   -1.616   3.574   40.271
C   -3.340   0.872   40.890
O   -4.027   1.784   40.317
C   -4.055   -0.418   41.351
N   1.215   -2.105   42.303
C   -0.098   -2.212   42.224
C   -0.536   -3.706   42.478
C   0.833   -4.402   42.734
C   1.835   -3.255   42.659
C   -1.720   -4.002   43.507
C   1.191   -5.694   41.851
C   1.289   -7.045   42.569
N   3.961   -1.251   42.467
C   4.230   -2.479   42.916
C   5.648   -2.637   43.012
C   6.189   -1.493   42.517
C   5.109   -0.656   42.213
C   6.375   -3.786   43.427
C   7.347   -0.779   42.287
O   8.514   -1.102   42.564
C   6.940   0.616   41.649
C   7.616   1.636   42.449
O   8.199   2.618   41.922
O   7.492   1.452   43.783
C   8.228   2.539   44.611
C   3.942   1.470   35.067
C   4.958   1.078   33.990
C   5.174   -0.139   33.401
C   4.457   -1.401   33.900
C   6.352   -0.392   32.481
C   6.096   -0.473   31.052
C   6.474   0.727   30.156
C   5.492   1.017   29.002
C   6.244   1.283   27.657
C   4.611   2.292   29.302
C   3.180   2.079   28.822
C   2.264   1.339   29.791
C   1.424   2.269   30.747
C   1.708   1.928   32.182
C   -0.145   2.121   30.469
C   -0.994   3.479   30.581
C   -1.909   3.659   29.381
C   -1.958   5.138   28.691
C   -2.952   6.054   29.401
C   -2.269   4.962   27.213
H   1.173   3.931   40.513
H   -1.961   -1.764   41.803
H   3.574   -4.409   43.308
H   5.883   3.356   41.115
H   3.575   4.090   39.453
H   2.653   4.873   41.930
H   3.573   5.771   40.679
H   4.506   5.095   41.941
H   6.976   3.082   39.335
H   5.657   3.986   38.740
H   5.131   1.026   38.594
H   6.881   1.430   38.196
H   -1.941   3.700   39.238
H   -0.769   4.251   40.382
H   -2.431   3.996   40.860
H   -3.655   -0.683   42.330
H   -4.101   -1.201   40.594
H   -5.089   -0.226   41.640
H   -0.875   -4.051   41.501
H   0.762   -4.731   43.771
H   -1.270   -4.588   44.308
H   -2.482   -4.610   43.021
H   -1.965   -3.009   43.885
H   2.201   -5.545   41.467
H   0.425   -5.754   41.078
H   1.146   -6.903   43.640
H   2.128   -7.695   42.319
H   0.346   -7.514   42.288
H   6.938   -4.086   42.543
H   5.685   -4.575   43.725
H   7.059   -3.719   44.273
H   7.202   0.645   40.591
H   7.844   3.526   44.351
H   9.307   2.490   44.464
H   8.022   2.332   45.661
H   3.689   2.526   34.970
H   3.006   0.913   35.021
H   5.451   1.923   33.511
H   3.854   -1.249   34.795
H   5.094   -2.282   33.840
H   3.726   -1.532   33.102
H   6.685   -1.380   32.796
H   7.149   0.299   32.756
H   5.041   -0.745   31.006
H   6.684   -1.292   30.639
H   7.374   0.443   29.610
H   6.640   1.594   30.796
H   4.862   0.154   28.787
H   6.310   0.383   27.045
H   7.249   1.684   27.791
H   5.644   2.009   27.108
H   5.035   3.174   28.824
H   4.597   2.350   30.391
H   3.150   1.626   27.831
H   2.858   3.099   28.611
H   2.908   0.740   30.434
H   1.599   0.697   29.213
H   1.615   3.335   30.626
H   2.444   2.586   32.644
H   2.052   0.904   32.333
H   0.738   2.054   32.662
H   -0.732   1.454   31.099
H   -0.243   1.668   29.482
H   -0.299   4.294   30.783
H   -1.596   3.405   31.486
H   -2.970   3.633   29.629
H   -1.656   2.829   28.721
H   -1.002   5.626   28.875
H   -2.777   7.110   29.197
H   -2.731   5.799   30.438
H   -3.953   5.663   29.217
H   -1.421   5.187   26.568
H   -3.117   5.593   26.946
H   -2.579   3.971   26.880

