%nproc=24
%mem=75GB
#p blyp/Def2SVP td=(nstates=5)

step_1251_chromophore_23 TDDFT with blyp functional

0 1
Mg   -9.805   40.733   42.873
C   -8.786   37.541   42.042
C   -7.287   42.043   40.643
C   -10.901   43.936   43.387
C   -12.545   39.434   44.543
N   -8.257   39.855   41.555
C   -7.978   38.548   41.415
C   -6.897   38.304   40.316
C   -6.347   39.784   40.045
C   -7.418   40.611   40.710
C   -4.898   40.032   40.482
C   -7.520   37.620   39.098
C   -6.644   36.644   38.315
C   -5.768   37.201   37.202
O   -4.935   38.076   37.385
O   -6.041   36.610   36.010
N   -9.144   42.723   42.046
C   -8.064   42.982   41.266
C   -7.922   44.437   41.095
C   -8.887   45.042   41.980
C   -9.721   43.850   42.478
C   -6.833   45.047   40.245
C   -8.985   46.538   42.289
O   -8.195   47.377   41.865
C   -10.100   47.008   43.198
N   -11.510   41.515   43.667
C   -11.700   42.882   43.868
C   -13.062   43.161   44.561
C   -13.458   41.788   45.082
C   -12.439   40.816   44.494
C   -13.177   44.261   45.589
C   -14.906   41.344   44.674
C   -15.713   40.564   45.713
N   -10.626   38.861   43.240
C   -11.716   38.480   43.925
C   -11.763   36.981   43.955
C   -10.621   36.548   43.302
C   -9.963   37.720   42.905
C   -12.929   36.112   44.493
C   -9.854   35.413   42.832
O   -10.014   34.203   43.064
C   -8.634   36.031   41.922
C   -7.364   35.496   42.342
O   -6.860   35.583   43.471
O   -6.919   34.687   41.303
C   -5.665   33.954   41.554
C   -5.113   36.868   34.933
C   -5.891   36.687   33.593
C   -6.384   37.731   32.871
C   -6.382   39.187   33.356
C   -6.892   37.474   31.450
C   -5.685   37.165   30.566
C   -6.099   36.318   29.306
C   -5.694   36.991   28.010
C   -5.062   36.085   26.900
C   -6.834   37.693   27.254
C   -6.861   39.225   27.353
C   -8.324   39.813   27.318
C   -9.043   39.949   28.604
C   -10.548   39.459   28.656
C   -8.904   41.398   29.165
C   -7.599   41.743   29.964
C   -6.462   42.445   29.175
C   -5.739   43.526   29.975
C   -4.884   42.909   31.144
C   -6.673   44.583   30.517
H   -6.541   42.386   39.923
H   -11.283   44.932   43.622
H   -13.278   38.829   45.080
H   -6.142   37.646   40.747
H   -6.361   39.940   38.966
H   -4.344   40.481   39.658
H   -4.323   39.144   40.743
H   -4.932   40.719   41.327
H   -7.772   38.389   38.367
H   -8.371   37.021   39.422
H   -7.340   35.887   37.955
H   -6.028   36.192   39.092
H   -6.779   46.133   40.313
H   -6.993   44.786   39.198
H   -5.853   44.663   40.527
H   -9.993   46.505   44.160
H   -11.071   46.782   42.758
H   -10.031   48.090   43.319
H   -13.629   43.432   43.670
H   -13.291   41.774   46.159
H   -13.957   45.005   45.421
H   -12.205   44.747   45.502
H   -13.339   43.812   46.569
H   -14.856   40.704   43.793
H   -15.564   42.167   44.394
H   -16.300   39.759   45.271
H   -16.513   41.185   46.117
H   -15.069   40.084   46.451
H   -13.647   36.726   45.037
H   -12.528   35.373   45.187
H   -13.430   35.681   43.627
H   -8.754   35.595   40.930
H   -4.980   34.797   41.461
H   -5.609   33.329   40.663
H   -5.482   33.367   42.454
H   -4.374   36.081   35.079
H   -4.653   37.855   34.968
H   -5.999   35.716   33.111
H   -6.208   39.268   34.429
H   -7.380   39.594   33.191
H   -5.532   39.637   32.843
H   -7.316   38.410   31.086
H   -7.652   36.693   31.476
H   -4.841   36.669   31.045
H   -5.373   38.188   30.353
H   -7.168   36.127   29.208
H   -5.621   35.350   29.457
H   -4.956   37.764   28.223
H   -5.681   35.189   26.843
H   -4.077   35.824   27.287
H   -5.009   36.562   25.922
H   -7.781   37.257   27.572
H   -6.812   37.525   26.177
H   -6.353   39.521   26.435
H   -6.283   39.541   28.222
H   -8.852   39.192   26.594
H   -8.264   40.745   26.756
H   -8.519   39.289   29.295
H   -10.627   38.473   29.114
H   -10.942   39.455   27.640
H   -11.172   40.094   29.285
H   -9.780   41.698   29.740
H   -8.817   42.107   28.342
H   -7.235   40.739   30.182
H   -7.752   42.148   30.965
H   -6.848   42.945   28.287
H   -5.696   41.726   28.885
H   -5.105   44.102   29.301
H   -3.826   43.077   30.941
H   -4.887   41.825   31.255
H   -5.150   43.356   32.102
H   -6.056   45.473   30.640
H   -7.174   44.306   31.445
H   -7.506   44.794   29.847

