%nproc=24
%mem=75GB
#p PBE1PBE/Def2SVP td=(nstates=5)

step_401_chromophore_21 TDDFT with PBE1PBE functional

0 1
Mg   15.870   51.630   24.750
C   17.922   50.569   27.423
C   13.529   52.507   26.984
C   14.199   52.626   22.243
C   18.464   50.282   22.594
N   15.646   51.318   26.865
C   16.690   51.112   27.750
C   16.280   51.491   29.180
C   14.724   51.680   29.070
C   14.642   51.914   27.560
C   13.900   50.506   29.530
C   17.035   52.677   29.628
C   16.902   53.085   31.154
C   15.836   52.260   31.978
O   16.080   51.104   32.342
O   14.634   52.889   32.168
N   14.010   52.503   24.597
C   13.267   52.809   25.658
C   12.053   53.439   25.153
C   12.202   53.474   23.696
C   13.523   52.871   23.476
C   10.911   53.984   25.912
C   11.274   54.017   22.608
O   11.550   54.053   21.416
C   9.938   54.716   22.971
N   16.285   51.435   22.767
C   15.408   51.967   21.875
C   15.898   52.015   20.473
C   17.159   51.122   20.528
C   17.326   50.899   22.063
C   14.811   51.515   19.436
C   18.373   51.759   19.892
C   19.311   50.890   18.944
N   17.875   50.666   24.927
C   18.788   50.125   23.970
C   19.929   49.609   24.584
C   19.613   49.765   26.027
C   18.391   50.396   26.122
C   21.068   49.005   23.801
C   20.084   49.421   27.348
O   21.109   48.832   27.765
C   19.033   50.054   28.361
C   18.610   48.909   29.294
O   17.688   48.148   29.155
O   19.446   48.930   30.340
C   18.891   48.392   31.579
C   13.712   52.157   33.007
C   12.432   52.875   32.867
C   11.182   52.336   32.971
C   10.823   50.857   33.277
C   10.051   53.330   32.919
C   9.753   53.830   34.376
C   10.134   55.292   34.524
C   8.950   56.330   34.524
C   9.234   57.751   33.844
C   8.452   56.595   36.002
C   7.235   55.787   36.413
C   5.894   56.463   36.103
C   5.186   57.177   37.244
C   4.844   56.260   38.450
C   3.987   58.009   36.741
C   3.902   59.412   37.363
C   4.555   60.463   36.386
C   5.713   61.268   36.908
C   5.569   62.784   36.502
C   7.044   60.579   36.321
H   12.672   52.778   27.604
H   13.643   52.988   21.376
H   19.162   49.902   21.845
H   16.432   50.690   29.903
H   14.279   52.556   29.542
H   12.981   50.936   29.928
H   14.344   49.790   30.221
H   13.699   49.844   28.688
H   16.766   53.602   29.118
H   18.118   52.561   29.615
H   16.625   54.139   31.197
H   17.895   53.019   31.598
H   10.861   55.072   25.872
H   11.025   53.719   26.963
H   9.987   53.497   25.598
H   10.218   55.601   23.542
H   9.276   54.075   23.553
H   9.477   54.970   22.016
H   16.099   53.077   20.330
H   16.887   50.142   20.136
H   14.103   50.911   20.003
H   15.262   51.020   18.576
H   14.370   52.442   19.069
H   19.035   51.984   20.728
H   18.058   52.600   19.273
H   19.295   51.168   17.890
H   18.962   49.857   18.926
H   20.351   50.923   19.269
H   20.920   48.719   22.760
H   21.334   48.150   24.423
H   21.861   49.753   23.799
H   19.593   50.768   28.964
H   18.275   47.516   31.375
H   18.276   49.159   32.050
H   19.744   48.102   32.192
H   14.088   52.148   34.030
H   13.492   51.129   32.719
H   12.559   53.956   32.803
H   10.632   50.410   32.301
H   9.930   50.804   33.899
H   11.675   50.323   33.697
H   9.177   52.684   32.834
H   9.952   53.983   32.052
H   10.320   53.202   35.064
H   8.716   53.682   34.677
H   10.789   55.645   33.728
H   10.705   55.525   35.423
H   8.105   55.820   34.060
H   8.641   57.877   32.938
H   10.270   57.861   33.525
H   9.096   58.581   34.537
H   8.256   57.656   36.156
H   9.227   56.292   36.705
H   7.319   55.748   37.499
H   7.132   54.757   36.070
H   5.202   55.794   35.592
H   6.087   57.218   35.340
H   5.917   57.935   37.525
H   4.858   55.260   38.018
H   3.924   56.662   38.876
H   5.656   56.398   39.164
H   3.073   57.490   37.027
H   3.957   58.087   35.654
H   4.406   59.413   38.330
H   2.896   59.767   37.584
H   3.793   61.197   36.122
H   4.759   59.991   35.424
H   5.656   61.273   37.997
H   5.249   63.346   37.379
H   4.893   62.905   35.656
H   6.556   63.145   36.214
H   6.941   59.957   35.432
H   7.422   59.991   37.157
H   7.855   61.279   36.121

