%nproc=24
%mem=75GB
#p blyp/Def2SVP td=(nstates=5)

step_151_chromophore_1 TDDFT with blyp functional

0 1
Mg   -2.110   17.152   26.999
C   -1.817   14.861   29.544
C   -2.304   19.782   29.286
C   -2.191   19.367   24.414
C   -2.144   14.616   24.639
N   -2.197   17.280   29.190
C   -1.980   16.164   30.040
C   -2.353   16.683   31.431
C   -2.336   18.252   31.364
C   -2.267   18.464   29.876
C   -3.569   19.018   31.966
C   -1.469   16.117   32.597
C   -1.041   17.035   33.831
C   -0.772   16.407   35.192
O   -1.517   15.628   35.744
O   0.403   16.892   35.651
N   -2.195   19.193   26.851
C   -2.297   20.076   27.909
C   -2.277   21.427   27.395
C   -2.014   21.376   25.969
C   -2.137   19.949   25.682
C   -2.633   22.619   28.262
C   -1.831   22.644   25.007
O   -1.606   22.488   23.775
C   -1.738   23.999   25.597
N   -2.343   17.027   24.809
C   -2.226   18.082   23.959
C   -2.357   17.581   22.444
C   -2.080   16.083   22.662
C   -2.299   15.901   24.144
C   -3.731   18.036   21.779
C   -0.658   15.647   22.206
C   -0.518   14.156   21.971
N   -2.120   15.167   26.980
C   -2.063   14.240   25.953
C   -1.950   12.976   26.501
C   -1.807   13.097   27.848
C   -1.889   14.483   28.148
C   -1.765   11.734   25.609
C   -1.585   12.416   29.116
O   -1.303   11.251   29.361
C   -1.670   13.544   30.241
C   -0.424   13.399   31.065
O   0.658   13.688   30.659
O   -0.719   12.869   32.277
C   0.269   12.966   33.360
C   0.713   16.687   37.025
C   -0.161   17.526   37.930
C   -0.264   17.317   39.248
C   0.644   16.407   40.105
C   -1.148   18.246   40.053
C   -0.533   18.822   41.395
C   -0.727   20.336   41.484
C   0.633   21.053   41.136
C   0.996   20.886   39.651
C   1.779   20.731   42.122
C   2.583   22.008   42.507
C   4.123   21.950   42.570
C   4.540   22.523   43.951
C   5.893   23.292   43.769
C   4.591   21.392   45.015
C   3.874   21.730   46.274
C   2.489   21.133   46.297
C   1.466   21.912   47.214
C   0.773   21.068   48.250
C   0.550   22.844   46.370
H   -2.300   20.575   30.037
H   -2.185   20.087   23.593
H   -2.230   13.876   23.842
H   -3.382   16.338   31.538
H   -1.466   18.707   31.836
H   -4.093   19.687   31.282
H   -3.288   19.646   32.811
H   -4.251   18.241   32.310
H   -0.469   15.911   32.215
H   -1.882   15.241   33.097
H   -1.719   17.881   33.945
H   -0.098   17.474   33.505
H   -3.111   22.260   29.173
H   -3.253   23.407   27.835
H   -1.747   23.170   28.578
H   -1.149   23.827   26.498
H   -2.709   24.341   25.955
H   -1.259   24.831   25.080
H   -1.513   18.091   21.981
H   -2.793   15.417   22.175
H   -3.465   18.755   21.003
H   -4.313   18.650   22.466
H   -4.221   17.186   21.304
H   0.103   15.922   22.935
H   -0.490   16.215   21.291
H   0.039   13.667   22.770
H   0.016   14.004   21.033
H   -1.474   13.634   21.929
H   -2.720   11.648   25.090
H   -1.394   10.989   26.313
H   -1.042   11.901   24.811
H   -2.503   13.365   30.920
H   1.073   13.693   33.246
H   0.587   11.934   33.509
H   -0.293   13.295   34.234
H   1.762   16.883   37.249
H   0.620   15.674   37.417
H   -0.744   18.303   37.436
H   0.931   15.569   39.471
H   0.009   16.020   40.902
H   1.598   16.895   40.305
H   -1.961   17.591   40.365
H   -1.631   18.995   39.426
H   0.498   18.533   41.599
H   -1.111   18.318   42.170
H   -1.258   20.627   42.391
H   -1.329   20.659   40.635
H   0.294   22.086   41.208
H   1.249   19.903   39.254
H   1.812   21.554   39.375
H   0.085   21.100   39.092
H   2.541   20.086   41.685
H   1.339   20.330   43.035
H   2.188   22.176   43.509
H   2.201   22.817   41.884
H   4.535   22.511   41.732
H   4.550   20.951   42.475
H   3.832   23.282   44.284
H   6.345   23.192   42.783
H   6.620   23.185   44.574
H   5.564   24.330   43.725
H   5.665   21.358   45.197
H   4.398   20.380   44.658
H   3.795   22.806   46.430
H   4.536   21.349   47.051
H   2.586   20.128   46.706
H   2.036   20.940   45.325
H   1.995   22.709   47.736
H   -0.279   21.354   48.239
H   1.211   21.182   49.242
H   0.721   20.024   47.941
H   0.762   22.972   45.309
H   0.600   23.824   46.845
H   -0.467   22.466   46.471

