%nproc=24
%mem=75GB
#p blyp/Def2SVP td=(nstates=5)

step_1151_chromophore_6 TDDFT with blyp functional

0 1
Mg   17.223   -2.649   28.108
C   16.589   -0.670   30.856
C   19.121   -4.769   30.036
C   18.038   -4.461   25.330
C   15.787   -0.243   26.117
N   17.945   -2.594   30.155
C   17.437   -1.789   31.140
C   17.927   -2.285   32.497
C   18.988   -3.376   32.146
C   18.636   -3.614   30.688
C   20.513   -2.907   32.355
C   16.802   -2.847   33.465
C   16.797   -2.210   34.873
C   18.092   -2.110   35.629
O   18.618   -1.108   36.063
O   18.538   -3.374   35.776
N   18.206   -4.450   27.770
C   18.921   -5.164   28.711
C   19.375   -6.381   28.143
C   19.214   -6.337   26.704
C   18.358   -5.097   26.545
C   19.973   -7.419   29.021
C   19.726   -7.149   25.672
O   19.383   -6.942   24.482
C   20.725   -8.295   26.047
N   17.151   -2.281   26.046
C   17.599   -3.156   25.101
C   17.460   -2.604   23.685
C   16.403   -1.477   23.923
C   16.441   -1.320   25.432
C   18.710   -2.111   22.982
C   15.015   -1.699   23.312
C   14.987   -1.492   21.804
N   16.278   -0.885   28.366
C   15.757   -0.036   27.451
C   15.028   1.030   28.154
C   15.314   0.819   29.548
C   16.115   -0.327   29.588
C   14.195   2.117   27.600
C   15.123   1.327   30.896
O   14.399   2.259   31.299
C   15.941   0.360   31.823
C   16.976   1.216   32.515
O   18.069   1.534   32.064
O   16.491   1.628   33.778
C   17.426   2.477   34.529
C   19.895   -3.493   36.335
C   19.798   -4.420   37.524
C   19.372   -4.097   38.748
C   19.139   -2.671   39.300
C   19.006   -5.259   39.749
C   20.010   -5.387   40.914
C   20.449   -6.846   41.262
C   21.391   -7.373   40.199
C   21.158   -8.774   39.767
C   22.870   -7.174   40.669
C   23.189   -8.247   41.773
C   24.315   -9.200   41.391
C   25.628   -9.052   42.225
C   26.683   -8.449   41.382
C   25.989   -10.533   42.707
C   27.081   -10.504   43.726
C   27.997   -11.758   43.861
C   29.453   -11.352   44.135
C   30.192   -12.620   44.760
C   30.094   -10.940   42.784
H   19.627   -5.462   30.710
H   18.238   -4.972   24.386
H   15.260   0.520   25.541
H   18.456   -1.490   33.023
H   18.784   -4.343   32.607
H   21.091   -3.816   32.519
H   20.535   -2.185   33.172
H   20.893   -2.439   31.447
H   16.704   -3.932   33.505
H   15.929   -2.557   32.881
H   16.082   -2.848   35.393
H   16.578   -1.148   34.764
H   19.790   -8.369   28.519
H   19.497   -7.581   29.988
H   21.052   -7.269   28.981
H   20.198   -9.218   26.289
H   21.359   -7.939   26.859
H   21.418   -8.592   25.261
H   16.944   -3.376   23.115
H   16.703   -0.564   23.409
H   18.627   -1.052   22.739
H   18.751   -2.755   22.104
H   19.560   -2.296   23.639
H   14.259   -1.033   23.726
H   14.721   -2.704   23.618
H   14.740   -2.484   21.425
H   15.985   -1.191   21.485
H   14.234   -0.767   21.495
H   13.147   1.969   27.861
H   14.333   2.016   26.523
H   14.642   3.079   27.851
H   15.244   -0.078   32.537
H   16.873   3.339   34.902
H   18.370   2.834   34.119
H   17.736   2.027   35.472
H   20.348   -2.570   36.699
H   20.601   -3.936   35.634
H   19.974   -5.401   37.083
H   18.132   -2.546   39.697
H   19.283   -1.950   38.496
H   19.899   -2.601   40.078
H   18.949   -6.218   39.234
H   18.052   -4.950   40.176
H   19.531   -5.032   41.827
H   20.892   -4.757   40.799
H   19.563   -7.460   41.425
H   20.932   -6.692   42.227
H   21.272   -6.822   39.266
H   20.298   -9.270   40.219
H   22.074   -9.363   39.815
H   20.948   -8.822   38.699
H   23.018   -6.125   40.926
H   23.509   -7.292   39.794
H   22.324   -8.857   42.031
H   23.515   -7.665   42.634
H   24.581   -9.024   40.349
H   23.910   -10.204   41.524
H   25.506   -8.424   43.107
H   27.115   -9.245   40.777
H   27.443   -8.053   42.055
H   26.343   -7.639   40.736
H   26.265   -11.205   41.895
H   25.154   -11.017   43.216
H   26.561   -10.371   44.675
H   27.810   -9.701   43.617
H   27.935   -12.428   43.003
H   27.644   -12.328   44.720
H   29.551   -10.596   44.914
H   29.835   -13.507   44.237
H   29.957   -12.637   45.824
H   31.244   -12.432   44.545
H   30.850   -11.688   42.545
H   30.537   -9.949   42.882
H   29.302   -10.795   42.049

