%nproc=24
%mem=75GB
#p PBE1PBE/Def2SVP td=(nstates=5)

step_151_chromophore_17 TDDFT with PBE1PBE functional

0 1
Mg   29.866   58.715   41.517
C   27.061   56.995   40.511
C   31.863   56.382   40.036
C   32.637   60.621   42.050
C   27.774   61.408   42.312
N   29.466   56.936   40.336
C   28.268   56.395   40.074
C   28.455   55.165   39.243
C   30.021   54.785   39.488
C   30.488   56.144   39.981
C   30.364   53.600   40.509
C   28.088   55.482   37.763
C   26.719   55.067   37.158
C   26.685   54.411   35.747
O   26.884   53.235   35.477
O   26.414   55.361   34.823
N   32.039   58.500   41.161
C   32.628   57.415   40.518
C   34.003   57.538   40.547
C   34.351   58.749   41.182
C   33.004   59.393   41.503
C   34.976   56.474   40.037
C   35.685   59.265   41.509
O   36.734   58.764   41.212
C   35.875   60.535   42.356
N   30.187   60.658   42.263
C   31.387   61.236   42.354
C   31.182   62.698   42.722
C   29.723   62.936   42.752
C   29.182   61.586   42.349
C   32.178   63.199   43.874
C   29.163   64.204   41.882
C   27.994   64.922   42.538
N   27.794   59.101   41.719
C   27.130   60.259   41.992
C   25.771   60.011   41.936
C   25.645   58.742   41.323
C   26.953   58.247   41.214
C   24.716   60.980   42.421
C   24.712   57.722   40.808
O   23.513   57.579   40.685
C   25.678   56.545   40.304
C   25.345   55.417   41.112
O   25.228   55.337   42.358
O   24.929   54.480   40.172
C   24.197   53.278   40.678
C   26.391   54.877   33.457
C   27.251   55.828   32.559
C   27.496   55.753   31.219
C   26.996   54.711   30.277
C   28.286   56.882   30.548
C   27.624   58.238   30.360
C   28.136   59.214   31.466
C   28.806   60.496   30.852
C   28.754   61.778   31.786
C   30.368   60.151   30.574
C   30.798   60.170   29.059
C   30.990   58.764   28.439
C   32.456   58.570   28.049
C   32.617   58.805   26.524
C   33.049   57.200   28.447
C   34.240   57.325   29.494
C   35.352   56.282   29.142
C   35.983   55.723   30.419
C   37.146   56.433   31.051
C   36.476   54.271   30.302
H   32.422   55.512   39.685
H   33.494   61.294   41.980
H   27.156   62.254   42.621
H   27.882   54.300   39.577
H   30.440   54.514   38.519
H   29.638   52.788   40.479
H   30.380   54.003   41.521
H   31.377   53.270   40.279
H   28.901   55.110   37.140
H   28.143   56.570   37.713
H   26.253   56.051   37.108
H   26.070   54.482   37.810
H   35.617   56.824   39.227
H   34.379   55.668   39.611
H   35.646   56.146   40.832
H   35.633   61.370   41.699
H   36.912   60.632   42.677
H   35.304   60.570   43.284
H   31.579   63.244   41.866
H   29.590   63.211   43.798
H   32.866   62.381   44.086
H   31.640   63.468   44.783
H   32.613   64.131   43.511
H   28.722   63.797   40.972
H   29.913   64.915   41.535
H   28.183   65.990   42.645
H   27.731   64.639   43.558
H   27.098   64.807   41.929
H   23.832   60.344   42.404
H   24.618   61.867   41.795
H   24.933   61.124   43.480
H   25.541   56.273   39.258
H   24.803   52.452   41.052
H   23.753   52.869   39.771
H   23.445   53.723   41.329
H   25.355   55.037   33.155
H   26.708   53.855   33.250
H   27.452   56.756   33.094
H   26.710   53.849   30.880
H   27.903   54.445   29.734
H   26.204   55.110   29.643
H   28.815   56.513   29.670
H   29.180   56.955   31.168
H   26.563   58.092   30.566
H   27.920   58.593   29.373
H   28.860   58.750   32.136
H   27.312   59.492   32.123
H   28.282   60.704   29.919
H   28.406   62.639   31.216
H   29.748   62.073   32.121
H   28.104   61.791   32.661
H   30.543   59.109   30.842
H   31.081   60.816   31.063
H   31.491   60.961   28.770
H   29.933   60.448   28.457
H   30.419   58.815   27.512
H   30.552   57.914   28.960
H   33.035   59.391   28.471
H   33.448   58.229   26.117
H   32.780   59.847   26.250
H   31.709   58.563   25.971
H   33.407   56.669   27.565
H   32.301   56.571   28.931
H   33.949   57.181   30.534
H   34.729   58.294   29.396
H   36.152   56.647   28.497
H   35.035   55.388   28.605
H   35.224   55.613   31.193
H   38.039   55.886   31.354
H   36.859   56.784   32.042
H   37.315   57.359   30.501
H   37.194   54.023   31.084
H   37.056   54.210   29.381
H   35.662   53.546   30.304

