%nproc=24
%mem=50gb
#p ZINDO=(nstates=5)

step_451_chromophore_9 ZINDO

0 1
Mg   35.209   2.004   30.386
C   32.718   2.890   32.656
C   37.574   1.913   32.914
C   37.427   1.247   28.101
C   32.806   2.617   27.846
N   35.197   2.655   32.480
C   34.045   2.809   33.223
C   34.453   2.899   34.695
C   36.008   3.260   34.529
C   36.357   2.503   33.248
C   36.316   4.845   34.525
C   34.142   1.617   35.509
C   34.579   1.647   36.927
C   35.054   2.915   37.654
O   34.305   3.884   37.945
O   36.409   2.871   37.847
N   37.237   1.578   30.503
C   38.021   1.641   31.626
C   39.259   1.025   31.327
C   39.275   0.765   29.921
C   37.930   1.211   29.415
C   40.317   0.893   32.345
C   40.377   0.194   29.103
O   40.224   0.103   27.885
C   41.709   -0.181   29.759
N   35.152   1.947   28.210
C   36.281   1.687   27.495
C   35.997   1.824   25.957
C   34.443   2.076   25.928
C   34.082   2.181   27.404
C   36.859   2.907   25.348
C   33.609   1.076   25.134
C   33.110   -0.239   25.870
N   33.146   2.587   30.226
C   32.317   2.751   29.119
C   30.974   3.053   29.560
C   31.035   3.145   30.970
C   32.412   2.791   31.303
C   29.882   3.474   28.709
C   30.367   3.419   32.214
O   29.224   3.647   32.531
C   31.437   3.290   33.380
C   31.565   4.576   34.101
O   32.031   5.621   33.614
O   31.178   4.483   35.411
C   31.669   5.529   36.337
C   36.950   3.976   38.679
C   37.839   3.380   39.648
C   37.603   2.903   40.887
C   36.218   2.887   41.532
C   38.718   2.302   41.716
C   38.840   0.774   41.566
C   39.387   0.031   42.864
C   40.870   -0.491   42.735
C   40.933   -2.037   42.894
C   41.938   0.293   43.545
C   43.373   0.397   42.881
C   44.187   1.506   43.540
C   44.445   2.587   42.566
C   45.192   2.124   41.256
C   45.141   3.844   43.131
C   44.360   5.149   43.109
C   45.273   6.292   42.764
C   44.468   7.569   42.735
C   44.056   7.899   41.296
C   45.374   8.770   43.258
H   38.186   1.870   33.817
H   38.185   0.993   27.357
H   32.103   2.773   27.025
H   33.794   3.626   35.169
H   36.569   2.853   35.369
H   35.739   5.214   35.373
H   35.934   5.327   33.625
H   37.370   5.052   34.713
H   34.745   0.848   35.026
H   33.096   1.331   35.399
H   35.432   0.974   37.015
H   33.887   1.099   37.566
H   41.240   1.324   31.956
H   40.475   -0.164   32.557
H   40.164   1.443   33.274
H   42.197   0.731   30.102
H   42.298   -0.571   28.929
H   41.660   -0.933   30.547
H   36.291   0.853   25.560
H   34.233   3.052   25.491
H   37.625   3.396   25.950
H   36.261   3.602   24.758
H   37.507   2.369   24.656
H   34.047   0.607   24.253
H   32.770   1.603   24.680
H   33.070   -1.090   25.190
H   32.078   -0.085   26.185
H   33.637   -0.427   26.806
H   29.706   2.728   27.935
H   30.046   4.480   28.324
H   29.048   3.506   29.410
H   31.108   2.526   34.085
H   30.911   6.278   36.567
H   32.667   5.889   36.088
H   31.751   4.916   37.235
H   36.170   4.578   39.146
H   37.506   4.758   38.161
H   38.860   3.131   39.360
H   36.167   3.656   42.303
H   35.817   1.901   41.765
H   35.504   3.195   40.768
H   38.584   2.591   42.758
H   39.644   2.722   41.324
H   39.493   0.748   40.694
H   37.966   0.177   41.307
H   38.688   -0.697   43.276
H   39.430   0.818   43.617
H   40.987   -0.261   41.676
H   41.735   -2.348   43.563
H   40.937   -2.553   41.933
H   40.045   -2.420   43.398
H   42.151   -0.198   44.494
H   41.588   1.302   43.761
H   43.144   0.339   41.817
H   43.860   -0.527   43.192
H   45.160   1.105   43.825
H   43.659   1.912   44.402
H   43.426   2.819   42.254
H   44.588   1.478   40.618
H   46.057   1.568   41.617
H   45.559   2.968   40.672
H   46.091   3.991   42.617
H   45.388   3.660   44.176
H   43.926   5.303   44.097
H   43.473   5.095   42.477
H   45.960   6.100   41.940
H   45.976   6.308   43.596
H   43.603   7.565   43.397
H   42.984   7.725   41.208
H   44.570   7.288   40.553
H   44.193   8.970   41.148
H   45.013   9.071   44.242
H   45.330   9.657   42.625
H   46.363   8.346   43.432

