%nproc=24
%mem=75GB
#p cam-b3lyp/Def2SVP td=(nstates=5)

step_101_chromophore_22 TDDFT with cam-b3lyp functional

0 1
Mg   8.662   47.591   24.658
C   6.242   48.196   27.239
C   11.076   48.721   26.752
C   10.810   47.505   22.082
C   5.967   47.357   22.410
N   8.631   48.607   26.687
C   7.570   48.418   27.600
C   8.000   48.615   29.034
C   9.482   49.201   28.789
C   9.821   48.751   27.352
C   9.488   50.777   28.946
C   8.103   47.353   29.895
C   8.220   47.567   31.443
C   7.587   46.423   32.181
O   6.730   45.592   31.715
O   8.119   46.303   33.436
N   10.618   47.854   24.515
C   11.469   48.310   25.493
C   12.766   48.251   24.968
C   12.758   47.738   23.614
C   11.325   47.655   23.377
C   14.050   48.535   25.862
C   13.830   47.452   22.664
O   13.682   47.143   21.485
C   15.302   47.630   23.125
N   8.364   47.587   22.538
C   9.463   47.536   21.700
C   9.003   47.531   20.223
C   7.485   47.053   20.342
C   7.218   47.437   21.784
C   9.181   48.922   19.579
C   7.270   45.556   19.984
C   5.964   45.222   19.245
N   6.506   47.693   24.753
C   5.585   47.526   23.787
C   4.256   47.485   24.423
C   4.480   47.742   25.736
C   5.849   47.926   25.918
C   2.969   47.306   23.692
C   3.771   47.916   27.011
O   2.581   47.817   27.301
C   4.876   48.296   28.037
C   4.667   47.395   29.178
O   4.772   46.188   29.177
O   4.419   48.164   30.297
C   4.129   47.470   31.545
C   7.675   45.175   34.316
C   8.437   45.240   35.724
C   7.904   45.534   36.981
C   6.496   46.079   37.130
C   8.736   45.440   38.264
C   8.675   46.632   39.231
C   10.198   47.056   39.505
C   10.882   46.300   40.666
C   11.157   47.239   41.902
C   12.107   45.520   40.211
C   12.381   44.189   40.930
C   13.769   44.162   41.634
C   13.899   42.954   42.484
C   14.885   41.926   41.781
C   14.396   43.334   43.855
C   13.247   43.776   44.838
C   13.481   45.263   45.203
C   12.812   45.613   46.494
C   11.232   45.549   46.378
C   13.211   47.030   46.809
H   11.888   49.108   27.373
H   11.462   47.358   21.218
H   5.083   47.044   21.852
H   7.368   49.335   29.554
H   10.203   48.790   29.496
H   9.602   51.018   30.002
H   8.608   51.188   28.450
H   10.348   51.066   28.342
H   8.929   46.716   29.578
H   7.256   46.706   29.668
H   7.810   48.529   31.751
H   9.281   47.550   31.694
H   13.833   49.028   26.810
H   14.692   49.299   25.425
H   14.597   47.617   26.077
H   15.575   47.046   24.004
H   15.542   48.690   23.202
H   15.987   47.182   22.405
H   9.469   46.748   19.626
H   6.938   47.631   19.597
H   9.527   49.633   20.329
H   8.264   49.237   19.081
H   9.907   48.733   18.789
H   7.184   44.989   20.911
H   8.190   45.215   19.508
H   5.399   44.319   19.475
H   6.089   45.195   18.162
H   5.300   46.064   19.444
H   2.424   46.600   24.318
H   3.186   46.973   22.677
H   2.473   48.272   23.596
H   4.689   49.344   28.272
H   4.952   47.834   32.160
H   4.130   46.384   31.460
H   3.246   47.912   32.008
H   7.952   44.176   33.982
H   6.623   45.398   34.494
H   9.434   44.806   35.642
H   6.041   46.674   36.338
H   6.372   46.619   38.069
H   5.880   45.180   37.113
H   9.751   45.356   37.876
H   8.467   44.464   38.668
H   8.211   46.214   40.125
H   8.053   47.429   38.824
H   10.170   48.078   39.884
H   10.825   47.052   38.613
H   10.173   45.599   41.106
H   12.120   47.087   42.391
H   10.411   47.071   42.678
H   11.186   48.312   41.713
H   12.999   46.141   40.131
H   11.919   45.175   39.194
H   12.434   43.362   40.222
H   11.533   43.899   41.551
H   13.935   45.035   42.265
H   14.598   44.289   40.938
H   13.014   42.354   42.700
H   15.184   42.223   40.776
H   14.478   40.924   41.646
H   15.784   41.908   42.397
H   15.183   44.081   43.754
H   14.808   42.419   44.281
H   13.204   43.190   45.756
H   12.264   43.711   44.372
H   13.136   45.914   44.400
H   14.544   45.395   45.403
H   13.212   44.955   47.265
H   10.755   46.362   45.832
H   10.748   45.534   47.355
H   10.936   44.709   45.750
H   13.626   47.149   47.810
H   12.339   47.682   46.846
H   13.819   47.509   46.042

