%nproc=24
%mem=75GB
#p blyp/Def2SVP td=(nstates=5)

step_451_chromophore_2 TDDFT with blyp functional

0 1
Mg   2.691   -0.599   43.961
C   5.777   0.664   42.979
C   1.308   2.216   42.778
C   -0.204   -2.246   43.958
C   4.348   -3.200   45.522
N   3.444   1.118   42.740
C   4.747   1.425   42.451
C   4.968   2.744   41.662
C   3.556   3.374   42.067
C   2.706   2.245   42.713
C   3.643   4.727   42.947
C   5.375   2.637   40.092
C   6.491   3.734   39.800
C   6.547   4.285   38.324
O   6.813   5.471   38.006
O   6.180   3.377   37.367
N   0.820   -0.101   43.383
C   0.436   1.124   42.948
C   -1.001   1.137   42.630
C   -1.536   -0.127   42.866
C   -0.324   -0.922   43.410
C   -1.669   2.365   42.071
C   -2.970   -0.615   42.696
O   -3.849   0.130   42.273
C   -3.274   -1.950   43.094
N   2.219   -2.612   44.492
C   0.895   -2.948   44.502
C   0.720   -4.330   45.219
C   2.240   -4.701   45.656
C   2.984   -3.455   45.246
C   -0.034   -4.361   46.520
C   2.888   -5.961   44.956
C   3.867   -6.733   45.835
N   4.651   -1.178   44.295
C   5.252   -2.217   45.005
C   6.643   -1.934   45.204
C   6.915   -0.904   44.307
C   5.706   -0.450   43.825
C   7.604   -2.726   46.127
C   7.934   -0.118   43.775
O   9.147   -0.051   43.948
C   7.242   0.891   42.818
C   7.791   2.224   43.207
O   8.776   2.730   42.673
O   7.014   2.777   44.216
C   7.331   4.149   44.612
C   6.171   3.774   35.918
C   5.206   2.807   35.243
C   5.507   1.632   34.633
C   6.859   0.955   34.938
C   4.386   0.716   34.059
C   3.720   1.110   32.782
C   2.307   0.614   32.632
C   1.322   1.625   33.201
C   0.291   1.100   34.173
C   0.655   2.402   32.065
C   -0.385   1.668   31.117
C   -1.759   2.417   31.129
C   -1.812   3.427   29.961
C   -2.254   4.817   30.549
C   -2.798   3.058   28.847
C   -2.268   2.385   27.567
C   -2.688   3.048   26.211
C   -3.582   2.185   25.261
C   -2.762   1.858   24.040
C   -4.844   2.933   24.979
H   0.847   3.188   42.593
H   -1.124   -2.832   44.002
H   4.952   -4.049   45.848
H   5.665   3.423   42.153
H   2.874   3.726   41.293
H   4.664   5.111   42.961
H   3.361   4.456   43.964
H   2.855   5.464   42.792
H   4.483   2.965   39.559
H   5.624   1.623   39.776
H   7.452   3.246   39.960
H   6.301   4.612   40.416
H   -1.380   2.613   41.050
H   -1.401   3.270   42.616
H   -2.748   2.210   42.089
H   -4.320   -2.102   42.827
H   -3.245   -2.154   44.165
H   -2.552   -2.527   42.516
H   0.335   -5.132   44.588
H   2.348   -4.733   46.740
H   -0.269   -3.401   46.979
H   0.487   -4.908   47.306
H   -0.970   -4.902   46.379
H   3.420   -5.657   44.054
H   2.116   -6.627   44.571
H   3.429   -7.720   45.983
H   3.949   -6.331   46.845
H   4.880   -6.687   45.435
H   8.087   -3.588   45.667
H   7.066   -3.017   47.029
H   8.326   -1.994   46.489
H   7.586   0.645   41.813
H   6.474   4.804   44.453
H   8.170   4.647   44.127
H   7.435   4.031   45.691
H   7.156   3.585   35.491
H   5.786   4.790   35.834
H   4.158   3.081   35.125
H   7.324   1.176   35.899
H   7.409   1.403   34.110
H   6.678   -0.109   34.790
H   3.576   0.749   34.788
H   4.655   -0.318   33.843
H   4.346   0.680   32.000
H   3.712   2.182   32.581
H   2.228   -0.316   33.195
H   2.307   0.410   31.562
H   1.925   2.298   33.811
H   -0.170   1.862   34.801
H   0.827   0.416   34.831
H   -0.404   0.449   33.642
H   1.434   2.787   31.407
H   0.165   3.224   32.585
H   -0.547   0.602   31.277
H   0.005   1.650   30.099
H   -1.836   2.967   32.066
H   -2.614   1.744   31.183
H   -0.823   3.681   29.579
H   -2.431   4.792   31.624
H   -3.227   5.106   30.151
H   -1.533   5.606   30.329
H   -3.302   3.951   28.478
H   -3.522   2.366   29.277
H   -2.458   1.315   27.490
H   -1.182   2.370   27.657
H   -1.757   3.338   25.725
H   -3.213   3.949   26.528
H   -3.987   1.291   25.736
H   -2.565   2.758   23.456
H   -3.158   1.130   23.333
H   -1.764   1.609   24.401
H   -4.629   3.665   24.201
H   -5.156   3.487   25.865
H   -5.673   2.254   24.784

