%nproc=24
%mem=75GB
#p wB97XD/Def2SVP td=(nstates=5)

step_101_chromophore_11 TDDFT with wB97XD functional

0 1
Mg   53.505   23.953   45.168
C   50.636   25.863   44.491
C   52.196   21.287   43.835
C   56.711   22.603   45.093
C   54.995   27.043   46.095
N   51.656   23.686   44.239
C   50.627   24.514   44.023
C   49.314   23.808   43.750
C   49.836   22.275   43.679
C   51.337   22.440   43.960
C   49.139   21.237   44.661
C   48.546   24.235   42.542
C   49.358   24.364   41.230
C   48.856   23.749   39.993
O   48.269   24.433   39.200
O   48.792   22.371   40.131
N   54.343   22.147   44.565
C   53.599   21.141   44.117
C   54.459   19.978   43.907
C   55.802   20.336   44.223
C   55.694   21.717   44.682
C   53.907   18.640   43.283
C   57.028   19.473   44.114
O   56.929   18.347   43.665
C   58.379   20.013   44.473
N   55.559   24.753   45.407
C   56.612   23.974   45.296
C   57.939   24.786   45.584
C   57.380   26.169   45.944
C   55.845   26.004   45.771
C   58.998   24.202   46.620
C   57.745   27.371   45.025
C   59.230   27.461   44.605
N   52.915   26.000   45.459
C   53.589   27.069   45.923
C   52.742   28.237   46.221
C   51.566   27.857   45.585
C   51.742   26.479   45.122
C   53.171   29.505   46.932
C   50.205   28.254   45.228
O   49.542   29.303   45.461
C   49.599   26.998   44.463
C   49.354   27.524   43.126
O   50.275   27.798   42.324
O   47.999   27.594   42.866
C   47.407   28.027   41.549
C   48.201   21.703   38.959
C   49.054   21.558   37.628
C   48.919   20.866   36.488
C   47.693   20.042   36.218
C   50.055   20.742   35.416
C   51.310   19.861   35.836
C   51.451   18.676   34.920
C   52.965   18.337   34.677
C   53.712   19.249   33.712
C   53.142   16.774   34.338
C   52.227   16.136   33.258
C   53.142   15.401   32.113
C   52.872   13.965   31.687
C   53.218   12.954   32.826
C   53.622   13.733   30.345
C   53.156   12.473   29.564
C   54.300   11.476   29.104
C   54.028   10.974   27.621
C   54.136   9.457   27.587
C   55.058   11.773   26.740
H   51.587   20.393   43.684
H   57.694   22.133   45.166
H   55.374   28.048   46.294
H   48.819   23.937   44.713
H   49.775   21.921   42.649
H   48.448   21.800   45.288
H   49.813   20.628   45.263
H   48.595   20.576   43.985
H   48.013   25.167   42.728
H   47.662   23.602   42.457
H   50.330   23.919   41.442
H   49.562   25.410   40.998
H   54.420   18.398   42.352
H   52.835   18.724   43.111
H   54.055   17.752   43.897
H   58.589   20.821   43.773
H   59.046   19.174   44.275
H   58.303   20.255   45.534
H   58.470   24.818   44.633
H   57.538   26.329   47.011
H   59.704   23.543   46.116
H   58.628   23.603   47.453
H   59.620   24.973   47.074
H   57.509   28.330   45.488
H   57.196   27.184   44.102
H   59.871   26.755   45.133
H   59.732   28.410   44.797
H   59.222   27.179   43.553
H   52.299   30.130   47.127
H   53.916   30.058   46.360
H   53.583   29.283   47.916
H   48.641   26.688   44.880
H   46.805   28.935   41.545
H   46.798   27.234   41.113
H   48.232   28.287   40.886
H   47.353   22.333   38.689
H   47.840   20.705   39.208
H   50.018   22.030   37.819
H   48.111   19.036   36.185
H   47.218   20.182   35.246
H   46.976   20.076   37.039
H   50.488   21.738   35.322
H   49.553   20.494   34.482
H   51.128   19.548   36.864
H   52.237   20.426   35.735
H   50.896   18.739   33.983
H   50.923   17.870   35.431
H   53.364   18.393   35.690
H   54.486   19.840   34.202
H   53.107   19.804   32.995
H   54.304   18.588   33.078
H   52.805   16.181   35.188
H   54.194   16.528   34.194
H   51.620   16.905   32.781
H   51.609   15.415   33.793
H   54.196   15.327   32.381
H   52.982   16.067   31.265
H   51.791   13.908   31.555
H   52.368   12.273   32.868
H   53.252   13.397   33.821
H   54.180   12.471   32.654
H   54.651   13.492   30.612
H   53.697   14.597   29.686
H   52.588   12.839   28.709
H   52.450   11.882   30.147
H   54.348   10.661   29.826
H   55.227   12.047   29.156
H   53.004   11.217   27.337
H   53.154   9.015   27.757
H   54.785   9.100   28.387
H   54.530   9.114   26.631
H   55.460   11.160   25.934
H   55.841   12.329   27.257
H   54.450   12.501   26.203

