%nproc=24
%mem=75GB
#p wB97XD/Def2SVP td=(nstates=5)

step_1751_chromophore_16 TDDFT with wB97XD functional

0 1
Mg   41.408   41.220   26.755
C   40.445   43.687   29.206
C   42.680   39.434   29.309
C   42.168   39.246   24.519
C   40.353   43.663   24.358
N   41.667   41.606   28.999
C   41.131   42.580   29.789
C   41.343   42.282   31.280
C   42.473   41.151   31.195
C   42.278   40.663   29.757
C   43.952   41.522   31.538
C   40.054   41.909   32.045
C   40.161   42.141   33.561
C   38.990   42.881   34.416
O   37.962   43.484   34.106
O   39.226   42.645   35.753
N   42.213   39.421   26.845
C   42.577   38.784   27.984
C   42.983   37.453   27.620
C   42.829   37.386   26.185
C   42.439   38.763   25.782
C   43.550   36.449   28.586
C   42.975   36.202   25.265
O   42.869   36.299   24.009
C   43.298   34.807   25.865
N   41.173   41.378   24.688
C   41.659   40.366   23.991
C   41.491   40.560   22.444
C   40.631   41.919   22.417
C   40.762   42.349   23.898
C   42.734   40.417   21.615
C   39.119   41.863   21.980
C   38.165   41.009   22.836
N   40.447   43.248   26.713
C   40.260   44.124   25.660
C   39.856   45.364   26.153
C   39.859   45.223   27.551
C   40.223   43.895   27.793
C   39.653   46.632   25.267
C   39.497   45.860   28.799
O   38.968   46.926   29.038
C   39.773   44.814   29.919
C   40.513   45.480   31.099
O   41.736   45.588   31.198
O   39.585   46.028   31.918
C   40.185   46.499   33.191
C   38.272   42.951   36.816
C   38.792   42.429   38.132
C   38.732   42.950   39.377
C   38.068   44.251   39.788
C   39.416   42.222   40.595
C   38.865   40.758   40.882
C   38.744   40.380   42.375
C   39.556   39.166   42.867
C   38.737   37.908   42.878
C   40.305   39.392   44.148
C   39.320   39.538   45.298
C   39.452   38.621   46.516
C   38.200   38.693   47.370
C   38.497   38.857   48.841
C   37.309   37.424   47.211
C   35.792   37.628   47.497
C   34.799   37.421   46.334
C   34.613   35.906   46.055
C   33.196   35.276   46.307
C   34.924   35.632   44.545
H   43.152   38.814   30.074
H   42.359   38.564   23.688
H   40.166   44.380   23.556
H   41.783   43.139   31.788
H   42.220   40.300   31.826
H   44.607   41.529   30.667
H   44.360   40.841   32.285
H   43.871   42.554   31.880
H   39.724   40.883   31.881
H   39.214   42.504   31.687
H   41.092   42.640   33.831
H   40.432   41.217   34.072
H   43.500   36.693   29.647
H   44.577   36.247   28.281
H   43.045   35.486   28.510
H   42.356   34.500   26.318
H   44.113   34.687   26.579
H   43.518   34.196   24.990
H   40.833   39.763   22.098
H   41.245   42.586   21.812
H   43.478   39.798   22.117
H   43.218   41.381   21.461
H   42.644   39.885   20.668
H   39.115   41.461   20.967
H   38.651   42.832   21.812
H   37.860   40.164   22.219
H   37.279   41.575   23.122
H   38.566   40.744   23.815
H   40.402   47.325   25.648
H   38.724   47.180   25.423
H   39.803   46.529   24.192
H   38.760   44.517   30.190
H   39.397   47.090   33.658
H   41.081   47.087   32.992
H   40.672   45.662   33.692
H   37.214   42.699   36.764
H   38.278   44.041   36.854
H   39.448   41.563   38.035
H   37.733   44.753   38.880
H   38.814   44.905   40.239
H   37.243   44.177   40.497
H   39.422   42.868   41.473
H   40.427   42.070   40.217
H   39.586   40.076   40.431
H   37.885   40.648   40.417
H   37.712   40.036   42.432
H   39.067   41.192   43.028
H   40.398   39.069   42.181
H   37.687   38.094   43.100
H   39.222   37.278   43.625
H   38.857   37.342   41.955
H   40.955   40.259   44.022
H   41.003   38.560   44.230
H   38.260   39.545   45.046
H   39.589   40.510   45.712
H   40.259   38.901   47.193
H   39.662   37.604   46.185
H   37.501   39.507   47.175
H   38.167   37.986   49.407
H   37.913   39.664   49.282
H   39.534   39.022   49.132
H   37.765   36.542   47.659
H   37.389   37.133   46.163
H   35.562   38.649   47.802
H   35.532   36.983   48.336
H   35.143   37.911   45.423
H   33.794   37.747   46.600
H   35.414   35.388   46.584
H   33.110   34.320   45.790
H   32.420   35.924   45.901
H   33.060   34.989   47.350
H   35.869   36.135   44.337
H   34.104   36.073   43.979
H   35.010   34.575   44.294

