%nproc=24
%mem=75GB
#p PBE1PBE/Def2SVP td=(nstates=5)

step_1151_chromophore_19 TDDFT with PBE1PBE functional

0 1
Mg   25.680   50.965   26.654
C   23.388   51.928   29.278
C   27.922   50.004   28.996
C   27.969   50.636   24.220
C   23.456   52.430   24.358
N   25.701   51.075   28.850
C   24.646   51.419   29.712
C   25.029   51.221   31.161
C   26.537   50.756   31.086
C   26.689   50.479   29.548
C   27.558   51.821   31.570
C   24.127   50.096   31.762
C   24.061   49.963   33.246
C   24.987   50.656   34.263
O   25.583   51.715   34.119
O   24.735   50.103   35.533
N   27.671   50.294   26.584
C   28.405   49.883   27.666
C   29.671   49.438   27.148
C   29.658   49.459   25.728
C   28.360   50.133   25.431
C   30.696   48.891   28.062
C   30.672   49.054   24.764
O   30.413   49.118   23.561
C   31.994   48.473   25.230
N   25.711   51.579   24.536
C   26.783   51.304   23.810
C   26.463   51.641   22.363
C   25.041   52.219   22.356
C   24.655   51.984   23.790
C   27.410   52.434   21.618
C   24.075   51.708   21.267
C   23.098   50.527   21.527
N   23.832   51.948   26.735
C   23.042   52.446   25.654
C   21.715   52.868   26.176
C   21.833   52.717   27.582
C   23.151   52.247   27.902
C   20.550   53.296   25.294
C   21.134   52.803   28.867
O   20.035   53.211   29.155
C   22.127   52.317   30.035
C   22.465   53.536   30.831
O   23.511   54.216   30.716
O   21.513   53.755   31.837
C   21.855   54.779   32.725
C   25.526   50.809   36.613
C   25.342   50.062   37.875
C   25.751   50.402   39.071
C   26.604   51.571   39.331
C   25.547   49.509   40.241
C   26.281   48.138   40.167
C   25.543   46.954   40.719
C   26.205   46.349   41.982
C   26.583   44.853   41.729
C   25.333   46.544   43.231
C   25.645   47.792   44.061
C   25.490   47.574   45.547
C   26.812   47.821   46.348
C   27.228   46.645   47.316
C   26.888   49.247   47.096
C   27.732   50.216   46.205
C   26.959   51.524   45.885
C   27.405   51.956   44.440
C   28.824   52.648   44.377
C   26.382   52.942   43.856
H   28.603   49.519   29.698
H   28.662   50.467   23.393
H   22.786   52.841   23.600
H   24.803   52.166   31.654
H   26.649   49.810   31.616
H   28.169   52.199   30.750
H   28.159   51.335   32.338
H   27.124   52.748   31.945
H   24.281   49.108   31.328
H   23.107   50.242   31.407
H   24.288   48.900   33.334
H   23.013   50.165   33.470
H   31.607   49.472   27.913
H   30.725   47.809   27.936
H   30.518   49.226   29.084
H   32.473   47.838   24.484
H   31.794   47.779   26.047
H   32.637   49.302   25.523
H   26.379   50.671   21.873
H   24.955   53.300   22.248
H   28.289   52.574   22.248
H   27.008   53.382   21.262
H   27.694   51.963   20.676
H   24.732   51.475   20.429
H   23.404   52.519   20.985
H   22.922   50.025   20.575
H   22.196   50.916   21.999
H   23.562   49.848   22.242
H   20.463   52.773   24.342
H   20.706   54.361   25.125
H   19.642   53.088   25.860
H   21.733   51.587   30.743
H   21.031   54.966   33.413
H   22.214   55.654   32.182
H   22.643   54.402   33.377
H   25.123   51.814   36.729
H   26.586   50.855   36.362
H   24.735   49.165   37.750
H   26.349   51.902   40.338
H   26.400   52.392   38.644
H   27.640   51.241   39.251
H   24.480   49.429   40.450
H   25.880   50.064   41.117
H   27.256   48.337   40.610
H   26.394   47.860   39.119
H   25.527   46.258   39.880
H   24.500   47.199   40.922
H   27.117   46.914   42.176
H   25.622   44.344   41.662
H   27.212   44.346   42.461
H   27.003   44.654   40.744
H   25.421   45.659   43.861
H   24.272   46.492   42.984
H   24.986   48.545   43.630
H   26.596   48.254   43.794
H   25.313   46.508   45.691
H   24.633   48.180   45.841
H   27.615   47.764   45.613
H   27.100   46.973   48.347
H   28.309   46.508   47.313
H   26.740   45.729   46.983
H   27.372   49.150   48.068
H   25.843   49.533   47.215
H   28.296   49.819   45.360
H   28.425   50.622   46.942
H   27.157   52.297   46.628
H   25.887   51.369   45.763
H   27.434   51.062   43.817
H   29.355   52.335   45.276
H   28.677   53.728   44.386
H   29.357   52.311   43.488
H   25.902   53.441   44.698
H   25.825   52.563   42.999
H   27.036   53.607   43.291

