%nproc=24
%mem=75GB
#p blyp/Def2SVP td=(nstates=5)

step_1201_chromophore_8 TDDFT with blyp functional

0 1
Mg   44.329   3.786   47.920
C   41.737   6.151   47.233
C   41.908   1.368   47.958
C   46.744   1.485   47.965
C   46.610   6.254   47.214
N   42.021   3.806   47.640
C   41.188   4.884   47.432
C   39.732   4.445   47.296
C   39.830   2.929   47.863
C   41.364   2.624   47.833
C   39.371   2.851   49.301
C   39.224   4.450   45.841
C   38.065   5.375   45.580
C   38.017   6.171   44.210
O   38.042   7.363   44.091
O   37.977   5.272   43.186
N   44.339   1.637   47.878
C   43.237   0.884   47.977
C   43.657   -0.552   47.972
C   45.079   -0.587   47.950
C   45.460   0.846   48.005
C   42.718   -1.674   48.207
C   45.955   -1.879   48.015
O   45.507   -3.013   47.932
C   47.473   -1.743   48.207
N   46.339   3.864   47.562
C   47.149   2.832   47.841
C   48.603   3.228   48.022
C   48.565   4.672   47.388
C   47.076   4.968   47.451
C   49.239   2.945   49.342
C   49.159   4.759   45.920
C   50.667   5.020   45.856
N   44.263   5.848   47.466
C   45.294   6.660   47.170
C   44.750   7.953   46.915
C   43.347   7.867   46.958
C   43.111   6.460   47.254
C   45.374   9.223   46.396
C   42.122   8.497   46.757
O   41.886   9.631   46.403
C   41.014   7.481   47.201
C   40.562   7.805   48.610
O   41.291   8.252   49.495
O   39.214   7.413   48.745
C   38.663   7.853   50.052
C   37.881   5.787   41.766
C   39.111   5.315   41.042
C   39.569   5.629   39.846
C   38.762   6.433   38.839
C   40.886   5.091   39.298
C   40.623   4.135   38.174
C   41.669   3.020   38.175
C   41.373   2.182   36.907
C   40.676   0.833   37.290
C   42.724   1.807   36.179
C   43.220   3.039   35.374
C   44.656   3.383   35.569
C   45.532   3.269   34.301
C   46.985   3.136   34.719
C   45.548   4.629   33.412
C   44.926   4.448   32.043
C   43.578   5.187   31.864
C   42.985   4.891   30.472
C   41.474   5.048   30.495
C   43.586   5.808   29.310
H   41.112   0.630   47.844
H   47.490   0.752   48.280
H   47.353   7.044   47.090
H   39.050   4.909   48.009
H   39.306   2.128   47.340
H   40.198   2.706   49.996
H   38.727   1.971   49.300
H   38.820   3.713   49.677
H   38.869   3.497   45.451
H   40.047   4.729   45.183
H   38.120   6.007   46.466
H   37.166   4.759   45.542
H   41.743   -1.243   48.432
H   43.006   -2.375   48.990
H   42.705   -2.128   47.216
H   47.686   -1.241   49.151
H   48.009   -1.221   47.415
H   47.901   -2.744   48.247
H   49.299   2.764   47.323
H   49.094   5.358   48.049
H   48.482   2.699   50.086
H   49.633   3.868   49.769
H   50.063   2.244   49.207
H   48.680   5.511   45.292
H   48.875   3.844   45.400
H   50.845   5.998   46.304
H   51.247   4.976   44.934
H   51.194   4.405   46.585
H   44.920   9.461   45.434
H   46.455   9.150   46.280
H   45.214   10.014   47.129
H   40.133   7.379   46.566
H   38.571   8.935   50.152
H   39.327   7.499   50.840
H   37.674   7.405   50.143
H   37.827   6.869   41.646
H   36.965   5.365   41.352
H   39.774   4.721   41.670
H   37.974   7.103   39.183
H   38.116   5.730   38.314
H   39.418   6.859   38.079
H   41.448   4.616   40.103
H   41.361   5.969   38.861
H   40.636   4.610   37.193
H   39.617   3.731   38.291
H   41.470   2.314   38.981
H   42.694   3.390   38.219
H   40.583   2.639   36.312
H   40.857   0.125   36.481
H   39.593   0.937   37.354
H   41.044   0.374   38.207
H   42.421   1.070   35.435
H   43.376   1.444   36.973
H   42.523   3.858   35.550
H   43.037   2.852   34.316
H   44.988   2.820   36.441
H   44.574   4.396   35.964
H   45.213   2.340   33.828
H   47.400   2.131   34.637
H   47.167   3.395   35.762
H   47.715   3.764   34.209
H   46.527   5.088   33.276
H   44.984   5.239   34.117
H   44.811   3.394   31.789
H   45.678   4.961   31.444
H   43.677   6.255   32.060
H   42.869   4.837   32.613
H   43.149   3.854   30.179
H   41.128   5.241   31.510
H   41.005   4.083   30.301
H   41.101   5.718   29.720
H   43.893   5.164   28.486
H   44.398   6.393   29.741
H   42.922   6.540   28.850

