%nproc=24
%mem=75GB
#p PBE1PBE/Def2SVP td=(nstates=5)

step_951_chromophore_19 TDDFT with PBE1PBE functional

0 1
Mg   26.021   50.006   26.079
C   23.912   51.415   28.664
C   28.304   49.354   28.415
C   28.254   49.653   23.589
C   23.888   51.774   23.693
N   25.974   50.188   28.308
C   25.094   50.902   29.116
C   25.562   50.844   30.618
C   27.044   50.434   30.430
C   27.148   49.950   28.941
C   28.045   51.518   30.635
C   24.646   49.882   31.516
C   23.987   50.611   32.668
C   24.813   51.125   33.888
O   25.656   51.966   33.888
O   24.369   50.596   35.031
N   27.840   49.238   26.007
C   28.638   49.023   27.071
C   29.819   48.274   26.641
C   29.876   48.560   25.195
C   28.634   49.205   24.857
C   30.873   47.683   27.639
C   30.987   48.222   24.277
O   31.037   48.558   23.130
C   32.094   47.418   24.799
N   25.977   50.523   23.918
C   27.040   50.221   23.164
C   26.795   50.607   21.661
C   25.306   51.143   21.722
C   25.125   51.216   23.223
C   27.894   51.609   21.174
C   24.301   50.159   21.076
C   23.263   50.578   20.039
N   24.245   51.219   26.114
C   23.483   51.782   25.083
C   22.365   52.399   25.683
C   22.521   52.318   27.023
C   23.612   51.524   27.244
C   21.311   53.227   24.933
C   21.863   52.667   28.242
O   20.862   53.354   28.442
C   22.775   52.023   29.410
C   23.105   53.152   30.255
O   24.091   53.898   30.185
O   22.044   53.421   31.074
C   22.375   54.439   32.108
C   25.069   51.070   36.224
C   24.840   50.291   37.498
C   25.253   50.557   38.801
C   26.090   51.787   39.128
C   24.936   49.598   39.962
C   26.096   48.581   40.243
C   25.526   47.153   40.234
C   26.213   46.213   41.217
C   26.316   44.744   40.846
C   25.641   46.276   42.607
C   26.687   46.660   43.628
C   25.952   47.125   44.911
C   26.652   48.371   45.479
C   26.298   48.508   46.995
C   26.242   49.658   44.661
C   27.360   50.210   43.747
C   28.161   51.344   44.403
C   27.746   52.783   43.840
C   29.043   53.712   43.619
C   26.585   53.546   44.521
H   29.023   49.108   29.199
H   28.940   49.627   22.740
H   23.198   52.165   22.942
H   25.507   51.865   30.998
H   27.222   49.590   31.096
H   28.501   51.854   29.704
H   28.809   51.142   31.314
H   27.591   52.415   31.057
H   25.391   49.253   32.005
H   24.041   49.120   31.025
H   23.294   49.871   33.069
H   23.545   51.552   32.342
H   31.496   48.508   27.984
H   31.597   46.925   27.337
H   30.441   47.262   28.547
H   32.503   47.973   25.643
H   32.809   47.324   23.982
H   31.749   46.407   25.012
H   26.889   49.690   21.079
H   25.187   52.175   21.390
H   28.482   51.925   22.035
H   27.421   52.486   20.731
H   28.513   51.077   20.452
H   23.671   49.761   21.871
H   24.873   49.311   20.700
H   23.580   50.275   19.041
H   23.146   51.656   19.936
H   22.289   50.191   20.340
H   20.583   52.529   24.520
H   21.840   53.714   24.114
H   20.891   54.003   25.573
H   22.144   51.279   29.896
H   22.431   55.418   31.632
H   23.282   54.233   32.676
H   21.539   54.578   32.793
H   24.600   52.027   36.451
H   26.135   51.052   35.995
H   24.443   49.285   37.368
H   26.918   51.553   39.798
H   25.456   52.479   39.682
H   26.550   52.301   38.284
H   23.948   49.148   39.867
H   24.876   50.291   40.801
H   26.575   48.754   41.207
H   26.873   48.686   39.486
H   25.641   46.822   39.202
H   24.464   47.004   40.427
H   27.249   46.551   41.193
H   25.656   44.001   41.293
H   27.369   44.537   41.037
H   26.136   44.370   39.838
H   25.331   45.272   42.897
H   24.721   46.786   42.894
H   27.480   47.329   43.294
H   27.229   45.802   44.025
H   25.840   46.215   45.500
H   24.920   47.411   44.707
H   27.735   48.249   45.520
H   26.229   47.500   47.404
H   25.370   49.024   47.242
H   27.131   48.922   47.563
H   25.977   50.460   45.350
H   25.391   49.384   44.036
H   26.936   50.321   42.749
H   28.108   49.449   43.521
H   29.191   51.082   44.160
H   28.064   51.368   45.489
H   27.365   52.699   42.822
H   29.157   54.683   44.101
H   29.007   53.929   42.552
H   29.955   53.157   43.839
H   26.522   53.444   45.605
H   25.652   53.214   44.066
H   26.680   54.611   44.308

