%nproc=24
%mem=75GB
#p blyp/Def2SVP td=(nstates=5)

step_1251_chromophore_21 TDDFT with blyp functional

0 1
Mg   16.028   52.856   25.664
C   17.622   51.606   28.393
C   13.254   53.478   27.633
C   14.248   53.524   22.801
C   18.711   51.878   23.639
N   15.509   52.591   27.747
C   16.398   52.105   28.742
C   15.888   52.527   30.114
C   14.332   52.747   29.916
C   14.327   52.977   28.331
C   13.429   51.566   30.428
C   16.492   53.837   30.667
C   16.772   53.962   32.165
C   15.772   53.094   33.063
O   15.872   51.891   33.237
O   14.647   53.853   33.367
N   13.994   53.417   25.261
C   13.094   53.738   26.235
C   11.987   54.380   25.640
C   12.163   54.288   24.252
C   13.460   53.729   24.029
C   10.832   55.001   26.464
C   11.224   54.734   23.088
O   11.483   54.458   21.923
C   9.786   55.347   23.285
N   16.406   52.778   23.438
C   15.516   53.097   22.567
C   16.119   52.952   21.154
C   17.581   52.504   21.422
C   17.609   52.420   22.910
C   15.304   52.035   20.181
C   18.761   53.295   20.825
C   19.749   52.497   19.910
N   17.880   51.989   25.904
C   18.919   51.632   25.041
C   19.883   50.860   25.721
C   19.532   50.959   27.059
C   18.227   51.587   27.114
C   21.028   50.232   25.052
C   19.853   50.542   28.460
O   20.796   49.954   28.918
C   18.682   51.062   29.351
C   18.225   49.997   30.205
O   17.298   49.279   29.976
O   18.700   50.110   31.457
C   18.103   49.341   32.523
C   13.649   53.035   34.007
C   12.289   53.784   34.319
C   11.008   53.351   34.528
C   10.578   51.865   34.397
C   9.833   54.325   34.519
C   9.162   54.437   35.920
C   9.451   55.683   36.659
C   8.346   56.807   36.363
C   8.864   58.103   35.751
C   7.419   56.947   37.593
C   5.929   56.722   37.358
C   5.208   57.431   38.483
C   4.203   58.472   37.956
C   4.765   59.948   38.181
C   2.826   58.063   38.510
C   1.736   58.977   37.868
C   0.294   58.589   38.219
C   -0.387   59.699   39.039
C   -1.191   59.080   40.302
C   -1.389   60.595   38.177
H   12.524   53.912   28.319
H   13.771   53.846   21.872
H   19.553   51.628   22.989
H   16.179   51.735   30.804
H   13.929   53.614   30.441
H   12.526   52.010   30.847
H   13.832   50.996   31.265
H   13.187   50.917   29.587
H   16.137   54.818   30.351
H   17.482   53.839   30.213
H   16.709   55.022   32.409
H   17.771   53.631   32.450
H   10.818   56.089   26.527
H   10.764   54.590   27.471
H   9.943   54.756   25.883
H   9.382   55.508   22.286
H   9.940   56.307   23.777
H   9.067   54.644   23.705
H   16.122   53.980   20.792
H   17.703   51.485   21.054
H   15.901   51.255   19.708
H   14.894   52.576   19.327
H   14.495   51.543   20.720
H   19.513   53.616   21.546
H   18.500   54.218   20.307
H   19.682   52.608   18.828
H   19.623   51.450   20.184
H   20.806   52.644   20.130
H   20.622   49.679   24.205
H   21.397   49.402   25.654
H   21.739   51.007   24.768
H   19.088   51.843   29.993
H   18.835   48.540   32.624
H   17.109   48.916   32.383
H   17.995   49.876   33.466
H   14.142   52.759   34.939
H   13.432   52.150   33.408
H   12.317   54.864   34.174
H   9.623   51.715   33.894
H   10.369   51.382   35.352
H   11.359   51.273   33.919
H   9.125   53.878   33.821
H   10.157   55.319   34.209
H   9.500   53.569   36.486
H   8.098   54.289   35.735
H   10.441   55.874   36.244
H   9.507   55.382   37.705
H   7.737   56.454   35.530
H   9.935   58.221   35.917
H   8.374   59.004   36.119
H   8.684   58.065   34.677
H   7.652   57.881   38.104
H   7.637   56.201   38.357
H   5.679   55.662   37.318
H   5.893   57.164   36.362
H   5.782   57.957   39.245
H   4.648   56.671   39.029
H   4.231   58.307   36.879
H   4.382   60.520   37.335
H   5.840   60.075   38.051
H   4.366   60.327   39.122
H   2.901   58.427   39.534
H   2.676   56.984   38.468
H   1.932   58.776   36.815
H   1.884   60.037   38.076
H   0.291   57.684   38.825
H   -0.284   58.330   37.332
H   0.427   60.318   39.416
H   -2.260   59.054   40.090
H   -1.012   59.601   41.243
H   -0.902   58.038   40.437
H   -1.733   60.157   37.240
H   -0.756   61.453   37.949
H   -2.217   60.940   38.796

