%nproc=24
%mem=75GB
#p PBE1PBE/Def2SVP td=(nstates=5)

step_1701_chromophore_23 TDDFT with PBE1PBE functional

0 1
Mg   -9.522   40.724   42.791
C   -8.448   37.447   41.648
C   -7.051   41.898   40.628
C   -10.638   43.692   43.306
C   -12.356   39.188   44.102
N   -7.959   39.756   41.325
C   -7.594   38.422   41.170
C   -6.465   38.257   40.165
C   -5.944   39.726   39.986
C   -7.060   40.519   40.712
C   -4.482   40.009   40.531
C   -6.675   37.453   38.812
C   -5.686   36.410   38.486
C   -4.761   36.552   37.328
O   -3.828   37.340   37.206
O   -5.062   35.531   36.388
N   -8.864   42.641   42.146
C   -7.849   42.878   41.198
C   -7.727   44.299   41.164
C   -8.650   44.878   42.094
C   -9.456   43.780   42.511
C   -6.604   44.974   40.472
C   -8.734   46.358   42.488
O   -7.904   47.115   42.112
C   -9.840   46.878   43.330
N   -11.232   41.317   43.549
C   -11.391   42.636   43.752
C   -12.718   42.961   44.504
C   -13.259   41.517   44.847
C   -12.290   40.610   44.085
C   -12.614   44.017   45.679
C   -14.735   41.174   44.728
C   -15.469   40.555   45.944
N   -10.268   38.709   43.045
C   -11.457   38.266   43.581
C   -11.524   36.819   43.520
C   -10.333   36.489   42.817
C   -9.632   37.646   42.475
C   -12.683   35.971   44.008
C   -9.598   35.338   42.307
O   -10.054   34.210   42.253
C   -8.378   35.928   41.506
C   -7.156   35.337   42.208
O   -6.923   35.376   43.402
O   -6.357   34.823   41.280
C   -4.977   34.444   41.704
C   -4.297   35.423   35.158
C   -5.230   35.668   33.933
C   -5.790   36.854   33.540
C   -5.677   38.257   34.195
C   -6.464   36.798   32.208
C   -5.622   36.799   30.947
C   -6.382   36.209   29.724
C   -7.175   37.314   28.833
C   -6.585   37.273   27.339
C   -8.664   37.029   28.737
C   -9.465   38.340   29.111
C   -10.023   38.216   30.519
C   -11.007   39.371   30.918
C   -10.276   40.394   31.841
C   -12.386   38.940   31.601
C   -13.525   39.945   31.240
C   -14.577   39.379   30.270
C   -14.574   40.160   28.917
C   -16.026   40.314   28.383
C   -13.505   39.642   27.900
H   -6.222   42.292   40.036
H   -11.033   44.635   43.691
H   -13.234   38.635   44.444
H   -5.726   37.746   40.783
H   -5.890   40.007   38.934
H   -4.593   40.767   41.306
H   -3.766   40.316   39.769
H   -4.049   39.115   40.981
H   -6.656   38.210   38.028
H   -7.716   37.130   38.789
H   -6.161   35.435   38.373
H   -5.071   36.315   39.381
H   -6.816   45.948   40.032
H   -5.986   44.414   39.771
H   -5.862   45.116   41.258
H   -9.773   46.315   44.262
H   -10.814   46.780   42.852
H   -9.684   47.946   43.481
H   -13.396   43.381   43.761
H   -13.012   41.495   45.909
H   -13.253   44.857   45.407
H   -11.551   44.250   45.735
H   -12.882   43.512   46.606
H   -14.866   40.510   43.874
H   -15.125   42.162   44.482
H   -15.822   39.536   45.785
H   -16.353   41.185   46.035
H   -14.889   40.618   46.865
H   -12.922   36.305   45.018
H   -12.461   34.907   43.933
H   -13.566   36.136   43.391
H   -8.492   35.548   40.491
H   -4.471   35.292   42.165
H   -4.382   34.110   40.854
H   -4.895   33.586   42.371
H   -4.011   34.374   35.076
H   -3.372   35.995   35.232
H   -5.439   34.842   33.254
H   -5.041   38.972   33.672
H   -5.098   37.947   35.065
H   -6.625   38.730   34.450
H   -7.175   37.620   32.125
H   -7.050   35.880   32.251
H   -4.815   36.078   31.080
H   -5.302   37.834   30.833
H   -6.972   35.327   29.971
H   -5.593   35.814   29.085
H   -6.907   38.305   29.199
H   -7.093   36.519   26.737
H   -5.502   37.151   27.331
H   -6.740   38.213   26.810
H   -8.938   36.318   29.516
H   -8.969   36.663   27.757
H   -10.308   38.505   28.440
H   -8.811   39.205   28.997
H   -9.192   38.156   31.222
H   -10.459   37.222   30.614
H   -11.076   39.833   29.933
H   -11.030   40.878   32.462
H   -9.744   41.182   31.307
H   -9.625   39.931   32.583
H   -12.245   38.928   32.682
H   -12.668   37.900   31.438
H   -13.097   40.889   30.902
H   -13.922   40.112   32.241
H   -15.552   39.539   30.731
H   -14.413   38.302   30.220
H   -14.348   41.213   29.091
H   -16.042   41.246   27.819
H   -16.806   40.214   29.137
H   -16.196   39.473   27.711
H   -13.906   38.776   27.374
H   -12.648   39.135   28.343
H   -13.231   40.369   27.135

