%nproc=24
%mem=75GB
#p cam-b3lyp/Def2SVP td=(nstates=5)

step_1101_chromophore_13 TDDFT with cam-b3lyp functional

0 1
Mg   46.864   24.800   28.538
C   47.246   27.031   31.279
C   45.322   22.621   30.601
C   47.472   22.310   26.296
C   48.831   27.031   26.554
N   46.407   24.827   30.703
C   46.639   25.847   31.585
C   46.119   25.537   33.017
C   45.467   24.066   32.760
C   45.744   23.780   31.321
C   46.150   22.922   33.583
C   45.249   26.613   33.697
C   45.656   27.025   35.061
C   44.659   26.801   36.274
O   43.726   26.015   36.388
O   45.035   27.534   37.397
N   46.301   22.845   28.356
C   45.506   22.156   29.253
C   45.062   20.884   28.745
C   45.801   20.786   27.482
C   46.555   22.007   27.316
C   44.327   19.822   29.595
C   45.751   19.682   26.572
O   46.355   19.638   25.525
C   44.854   18.456   26.818
N   47.967   24.706   26.704
C   48.046   23.545   25.970
C   48.737   23.810   24.654
C   49.211   25.308   24.716
C   48.643   25.744   26.038
C   49.791   22.736   24.291
C   48.592   26.149   23.529
C   47.127   26.670   23.585
N   47.785   26.693   28.777
C   48.488   27.440   27.874
C   48.858   28.708   28.475
C   48.365   28.619   29.861
C   47.732   27.361   29.962
C   49.771   29.762   27.882
C   48.300   29.221   31.174
O   48.664   30.324   31.605
C   47.589   28.135   32.124
C   48.569   27.701   33.220
O   49.461   26.863   33.095
O   48.399   28.547   34.236
C   49.230   28.414   35.499
C   44.108   27.498   38.534
C   44.327   26.116   39.325
C   43.895   25.954   40.617
C   43.315   27.032   41.502
C   44.204   24.626   41.317
C   43.065   23.603   41.304
C   42.493   23.413   42.777
C   40.974   23.015   42.951
C   40.656   22.008   41.788
C   39.902   24.142   43.115
C   38.692   23.671   44.009
C   38.262   24.637   45.132
C   38.813   24.246   46.536
C   37.651   24.214   47.636
C   40.041   24.894   47.086
C   40.913   23.909   47.852
C   42.159   23.437   46.950
C   43.531   23.957   47.427
C   44.367   24.817   46.401
C   44.429   22.799   48.062
H   44.680   22.002   31.231
H   47.650   21.551   25.531
H   49.208   27.811   25.890
H   46.910   25.366   33.748
H   44.433   23.962   33.090
H   46.459   23.277   34.566
H   47.047   22.524   33.109
H   45.471   22.114   33.857
H   44.281   26.169   33.929
H   45.024   27.533   33.158
H   45.951   28.074   35.021
H   46.578   26.561   35.414
H   43.520   19.363   29.024
H   43.973   20.268   30.524
H   45.061   19.095   29.940
H   45.073   18.160   27.843
H   45.065   17.656   26.108
H   43.809   18.718   26.651
H   48.083   23.665   23.794
H   50.299   25.282   24.782
H   50.110   22.291   25.234
H   50.603   23.113   23.668
H   49.451   21.874   23.718
H   48.696   25.460   22.692
H   49.164   27.034   23.249
H   46.560   26.057   22.884
H   47.049   27.749   23.455
H   46.774   26.487   24.600
H   50.426   29.456   27.067
H   50.400   30.229   28.640
H   49.107   30.516   27.460
H   46.785   28.716   32.576
H   49.831   29.321   35.564
H   49.825   27.502   35.556
H   48.593   28.424   36.384
H   43.101   27.560   38.120
H   44.336   28.310   39.223
H   44.901   25.341   38.817
H   43.139   26.749   42.539
H   42.414   27.311   40.956
H   43.988   27.887   41.431
H   44.581   24.918   42.297
H   44.994   24.180   40.712
H   43.490   22.617   41.118
H   42.350   23.881   40.529
H   42.778   24.230   43.441
H   43.120   22.626   43.196
H   40.943   22.514   43.918
H   40.141   22.583   41.018
H   40.114   21.211   42.295
H   41.505   21.514   41.316
H   39.538   24.328   42.104
H   40.349   25.062   43.492
H   38.989   22.710   44.430
H   37.815   23.297   43.481
H   37.193   24.594   45.341
H   38.526   25.679   44.952
H   39.076   23.195   46.419
H   36.747   23.841   47.155
H   37.649   25.176   48.149
H   37.866   23.454   48.387
H   39.810   25.662   47.824
H   40.596   25.351   46.267
H   40.396   22.994   48.140
H   41.326   24.337   48.765
H   42.052   23.660   45.889
H   42.060   22.351   46.950
H   43.399   24.540   48.339
H   45.207   24.330   45.905
H   44.715   25.766   46.808
H   43.746   25.149   45.569
H   45.341   22.687   47.476
H   43.889   21.853   48.010
H   44.791   22.973   49.075

