%nproc=24
%mem=50gb
#p ZINDO=(nstates=5)

step_1251_chromophore_20 ZINDO

0 1
Mg   6.458   58.052   41.721
C   5.024   54.841   41.348
C   9.394   56.738   40.752
C   7.465   61.125   41.255
C   3.053   59.250   42.298
N   7.061   56.018   40.929
C   6.351   54.834   40.972
C   7.253   53.623   40.702
C   8.688   54.270   40.868
C   8.384   55.765   40.810
C   9.590   53.634   41.956
C   6.939   52.910   39.322
C   7.229   51.431   39.239
C   6.453   50.653   38.127
O   5.847   49.629   38.328
O   6.700   51.182   36.922
N   8.233   58.823   41.156
C   9.336   58.162   40.762
C   10.377   59.071   40.383
C   9.890   60.404   40.591
C   8.446   60.146   41.005
C   11.725   58.607   39.691
C   10.626   61.697   40.260
O   11.780   61.745   39.813
C   9.901   63.068   40.584
N   5.326   59.912   41.598
C   6.084   61.025   41.542
C   5.193   62.235   41.972
C   3.808   61.611   42.367
C   4.059   60.176   42.079
C   5.794   63.060   43.132
C   2.615   62.263   41.665
C   1.404   62.867   42.516
N   4.456   57.230   41.981
C   3.170   57.817   42.237
C   2.221   56.740   42.351
C   2.911   55.589   42.047
C   4.262   55.940   41.787
C   0.699   56.835   42.640
C   2.721   54.137   41.957
O   1.793   53.393   42.259
C   4.036   53.618   41.357
C   3.561   53.079   40.016
O   3.307   53.718   39.056
O   3.484   51.709   40.178
C   2.787   50.863   39.195
C   5.888   50.667   35.784
C   6.400   51.384   34.574
C   5.770   51.530   33.355
C   4.434   50.926   32.895
C   6.358   52.456   32.253
C   5.512   53.753   32.060
C   4.941   53.833   30.638
C   5.331   55.246   30.069
C   4.032   55.849   29.390
C   6.502   55.267   29.083
C   7.367   56.489   29.325
C   8.413   56.314   30.452
C   9.865   56.526   29.956
C   10.899   55.672   30.805
C   10.166   58.074   29.808
C   10.920   58.505   28.553
C   12.169   59.394   28.822
C   13.452   58.489   28.813
C   14.246   58.535   30.139
C   14.403   58.793   27.592
H   10.427   56.394   40.673
H   7.650   62.199   41.191
H   2.039   59.564   42.556
H   7.145   52.910   41.520
H   9.247   54.144   39.941
H   8.996   53.129   42.718
H   10.022   54.426   42.567
H   10.386   52.988   41.586
H   7.581   53.342   38.555
H   5.894   53.095   39.074
H   6.788   51.162   40.199
H   8.243   51.041   39.149
H   11.677   58.853   38.631
H   11.848   57.548   39.915
H   12.623   59.029   40.144
H   9.555   62.988   41.614
H   9.087   63.230   39.876
H   10.626   63.881   40.544
H   5.218   62.805   41.044
H   3.774   61.710   43.452
H   6.288   63.889   42.625
H   6.403   62.373   43.719
H   4.966   63.547   43.648
H   2.062   61.526   41.083
H   2.920   62.968   40.893
H   1.643   62.766   43.574
H   0.431   62.393   42.384
H   1.268   63.923   42.284
H   0.477   57.898   42.739
H   0.344   56.467   43.602
H   0.248   56.310   41.798
H   4.453   52.822   41.975
H   1.704   50.846   39.320
H   3.078   49.815   39.265
H   3.054   51.255   38.214
H   4.834   50.849   35.996
H   6.270   49.655   35.649
H   7.298   51.986   34.716
H   4.504   50.632   31.848
H   3.738   51.740   33.097
H   4.200   50.066   33.522
H   6.653   51.854   31.393
H   7.323   52.895   32.507
H   6.055   54.591   32.497
H   4.598   53.786   32.652
H   3.861   53.685   30.639
H   5.513   53.132   30.030
H   5.597   55.910   30.891
H   3.314   55.039   29.260
H   4.245   56.369   28.457
H   3.581   56.647   29.981
H   6.246   55.255   28.023
H   7.034   54.350   29.338
H   6.811   57.323   29.753
H   7.664   56.990   28.404
H   8.227   55.263   30.674
H   8.171   56.910   31.332
H   9.883   55.993   29.006
H   10.432   55.183   31.660
H   11.826   56.184   31.062
H   11.287   54.819   30.247
H   10.820   58.309   30.647
H   9.226   58.623   29.866
H   10.176   59.107   28.031
H   11.083   57.733   27.801
H   12.061   59.733   29.852
H   12.247   60.133   28.024
H   13.128   57.453   28.705
H   14.097   59.520   30.582
H   15.325   58.526   29.990
H   14.012   57.694   30.792
H   13.962   58.186   26.801
H   15.468   58.659   27.782
H   14.386   59.795   27.163

