%nproc=24
%mem=75GB
#p blyp/Def2SVP td=(nstates=5)

step_51_chromophore_19 TDDFT with blyp functional

0 1
Mg   25.715   50.820   27.463
C   23.811   51.763   30.233
C   28.060   49.506   29.464
C   27.526   50.479   24.707
C   23.039   52.287   25.458
N   25.840   50.532   29.660
C   24.917   50.947   30.560
C   25.336   50.542   31.952
C   26.830   49.987   31.702
C   26.936   49.900   30.194
C   28.039   50.469   32.466
C   24.384   49.609   32.716
C   24.661   49.500   34.225
C   23.955   50.433   35.179
O   22.937   51.125   34.924
O   24.515   50.447   36.428
N   27.568   50.105   27.143
C   28.313   49.569   28.095
C   29.607   49.286   27.519
C   29.471   49.529   26.088
C   28.161   50.104   25.905
C   30.869   48.774   28.295
C   30.406   49.229   24.862
O   30.142   49.526   23.717
C   31.701   48.446   25.113
N   25.373   51.556   25.413
C   26.262   51.053   24.496
C   25.774   51.246   23.026
C   24.270   51.648   23.249
C   24.142   51.780   24.773
C   26.515   52.330   22.195
C   23.158   50.672   22.587
C   23.075   50.746   21.017
N   23.793   51.864   27.739
C   22.855   52.379   26.834
C   21.740   52.950   27.547
C   22.092   52.812   28.864
C   23.332   52.103   28.930
C   20.524   53.621   26.935
C   21.580   52.956   30.235
O   20.532   53.346   30.732
C   22.784   52.428   31.140
C   23.430   53.608   31.636
O   24.132   54.433   31.112
O   22.819   53.841   32.841
C   23.096   54.971   33.672
C   23.987   51.316   37.429
C   23.873   50.412   38.537
C   24.852   49.750   39.190
C   26.395   49.739   38.938
C   24.592   49.094   40.593
C   25.116   47.645   40.745
C   25.933   47.449   42.122
C   25.677   46.087   42.794
C   25.821   44.844   41.858
C   24.353   46.057   43.610
C   24.482   45.993   45.165
C   24.723   47.432   45.718
C   26.012   47.522   46.494
C   26.078   46.711   47.849
C   26.455   48.983   46.728
C   27.249   49.568   45.561
C   26.513   50.658   44.830
C   26.659   52.068   45.442
C   25.289   52.549   46.018
C   27.123   53.197   44.470
H   28.902   49.191   30.084
H   28.039   50.287   23.763
H   22.191   52.639   24.867
H   25.484   51.420   32.581
H   26.828   48.925   31.947
H   28.862   50.892   31.890
H   28.449   49.669   33.082
H   27.741   51.283   33.126
H   24.446   48.568   32.397
H   23.323   49.845   32.632
H   25.740   49.621   34.328
H   24.262   48.548   34.577
H   30.833   47.701   28.483
H   31.017   49.297   29.239
H   31.685   49.168   27.689
H   31.450   47.671   25.837
H   32.336   49.178   25.613
H   32.083   47.989   24.200
H   25.958   50.276   22.562
H   24.133   52.637   22.812
H   26.821   51.903   21.240
H   27.454   52.458   22.732
H   26.100   53.334   22.106
H   22.187   50.989   22.966
H   23.447   49.643   22.799
H   23.380   49.846   20.483
H   23.708   51.571   20.689
H   22.013   50.962   20.896
H   19.632   53.462   27.541
H   20.379   53.144   25.966
H   20.737   54.689   26.874
H   22.337   51.812   31.919
H   23.355   54.579   34.656
H   22.220   55.617   33.609
H   23.980   55.563   33.437
H   22.976   51.704   37.300
H   24.625   52.191   37.556
H   22.899   50.319   39.016
H   26.624   50.515   38.207
H   26.748   48.809   38.493
H   26.913   49.800   39.895
H   23.515   49.114   40.756
H   24.988   49.816   41.306
H   25.866   47.530   39.962
H   24.350   46.879   40.626
H   25.627   48.203   42.847
H   26.976   47.641   41.870
H   26.413   45.895   43.575
H   25.834   44.976   40.776
H   25.068   44.090   42.087
H   26.807   44.415   42.032
H   23.735   45.229   43.263
H   23.786   46.980   43.490
H   25.298   45.309   45.393
H   23.525   45.578   45.482
H   23.828   47.640   46.303
H   24.786   48.127   44.880
H   26.729   47.108   45.786
H   25.121   46.361   48.236
H   26.570   47.155   48.713
H   26.720   45.858   47.627
H   27.133   48.932   47.580
H   25.636   49.536   47.188
H   27.529   48.846   44.794
H   28.218   49.874   45.955
H   25.450   50.417   44.825
H   26.806   50.652   43.781
H   27.349   52.015   46.284
H   25.481   53.187   46.881
H   24.680   51.712   46.359
H   24.695   53.129   45.312
H   28.115   53.439   44.850
H   26.489   54.081   44.397
H   27.130   52.797   43.456

