%nproc=24
%mem=50gb
#p ZINDO=(nstates=5)

step_551_chromophore_19 ZINDO

0 1
Mg   26.040   51.042   26.266
C   23.870   52.024   28.786
C   28.204   49.930   28.677
C   28.479   50.687   23.719
C   24.021   52.744   23.809
N   25.954   51.072   28.459
C   24.982   51.390   29.342
C   25.285   50.965   30.798
C   26.801   50.522   30.654
C   27.034   50.542   29.192
C   27.825   51.293   31.622
C   24.215   50.051   31.409
C   24.376   49.666   32.937
C   23.909   50.538   34.088
O   23.037   51.388   34.032
O   24.700   50.332   35.134
N   27.949   50.366   26.152
C   28.623   49.878   27.298
C   29.895   49.362   26.854
C   30.041   49.583   25.498
C   28.763   50.314   25.036
C   30.918   48.759   27.905
C   31.233   49.133   24.617
O   31.402   49.541   23.495
C   32.168   48.094   25.110
N   26.171   51.517   23.980
C   27.233   51.213   23.260
C   26.997   51.579   21.778
C   25.565   52.225   21.771
C   25.178   52.132   23.253
C   28.120   52.546   21.285
C   24.521   51.479   20.828
C   24.197   52.268   19.663
N   24.266   52.093   26.204
C   23.587   52.731   25.147
C   22.384   53.322   25.714
C   22.469   53.112   27.067
C   23.610   52.346   27.357
C   21.277   53.987   24.980
C   21.862   53.318   28.376
O   20.967   54.060   28.625
C   22.636   52.550   29.487
C   22.930   53.567   30.527
O   23.713   54.523   30.284
O   22.148   53.406   31.607
C   22.256   54.526   32.594
C   24.504   51.188   36.333
C   24.635   50.379   37.601
C   25.745   49.862   38.162
C   27.111   49.742   37.455
C   25.713   49.344   39.593
C   26.243   47.944   39.901
C   25.213   47.153   40.759
C   25.740   45.988   41.524
C   25.908   44.704   40.699
C   25.073   45.727   42.887
C   25.934   46.212   44.119
C   25.144   47.241   45.006
C   26.042   48.401   45.515
C   25.679   48.878   46.943
C   26.181   49.544   44.569
C   27.506   50.324   44.510
C   27.368   51.837   44.921
C   26.981   52.609   43.630
C   28.226   53.362   43.115
C   25.782   53.595   43.856
H   28.889   49.639   29.476
H   29.206   50.590   22.910
H   23.305   53.126   23.078
H   25.261   51.924   31.315
H   26.718   49.447   30.810
H   27.340   52.115   32.149
H   28.712   51.552   31.044
H   28.141   50.666   32.457
H   23.977   49.151   30.843
H   23.337   50.683   31.544
H   25.452   49.575   33.083
H   23.872   48.723   33.152
H   30.634   49.026   28.923
H   31.892   49.208   27.712
H   31.025   47.675   27.896
H   31.448   47.312   25.355
H   32.770   48.449   25.946
H   32.878   47.834   24.325
H   27.017   50.758   21.061
H   25.660   53.280   21.514
H   28.865   52.646   22.074
H   27.691   53.505   20.991
H   28.586   52.011   20.458
H   23.606   51.385   21.413
H   24.870   50.480   20.568
H   24.294   51.594   18.812
H   24.887   53.097   19.508
H   23.236   52.755   19.827
H   20.495   54.101   25.731
H   21.026   53.295   24.176
H   21.548   54.902   24.451
H   22.034   51.751   29.919
H   21.199   54.674   32.816
H   22.711   55.442   32.218
H   22.720   54.051   33.458
H   23.484   51.570   36.389
H   25.262   51.970   36.372
H   23.743   50.305   38.222
H   27.570   48.753   37.435
H   27.821   50.289   38.075
H   27.074   50.124   36.435
H   24.758   49.544   40.079
H   26.295   50.011   40.230
H   27.202   48.000   40.416
H   26.341   47.392   38.967
H   24.360   46.825   40.165
H   24.810   47.851   41.493
H   26.782   46.253   41.704
H   25.160   44.658   39.908
H   25.647   43.815   41.272
H   26.863   44.550   40.197
H   24.812   44.680   43.044
H   24.107   46.221   42.785
H   26.925   46.584   43.857
H   26.047   45.366   44.796
H   24.640   46.689   45.800
H   24.390   47.756   44.411
H   27.066   48.084   45.712
H   25.284   49.891   46.865
H   26.553   48.932   47.593
H   24.886   48.223   47.304
H   25.406   50.308   44.637
H   26.195   49.219   43.528
H   27.873   50.288   43.484
H   28.323   49.888   45.086
H   28.376   52.119   45.227
H   26.692   51.997   45.761
H   26.760   52.045   42.723
H   28.976   52.694   42.692
H   28.755   54.018   43.807
H   27.979   54.195   42.456
H   25.156   53.236   44.673
H   25.105   53.684   43.006
H   26.079   54.583   44.207

