%nproc=24
%mem=75GB
#p cam-b3lyp/Def2SVP td=(nstates=5)

step_1451_chromophore_4 TDDFT with cam-b3lyp functional

0 1
Mg   9.267   3.030   28.395
C   10.613   1.882   31.382
C   7.395   5.243   30.305
C   7.772   4.170   25.582
C   10.766   0.492   26.628
N   8.987   3.514   30.649
C   9.628   2.901   31.685
C   9.252   3.440   33.116
C   7.931   4.212   32.639
C   8.082   4.372   31.094
C   6.566   3.577   33.114
C   10.523   4.250   33.705
C   10.975   3.884   35.100
C   9.939   3.647   36.164
O   8.742   3.837   36.045
O   10.554   3.303   37.302
N   7.836   4.579   28.015
C   7.264   5.479   28.920
C   6.565   6.483   28.245
C   6.691   6.197   26.842
C   7.459   4.912   26.753
C   5.757   7.562   28.895
C   6.154   7.078   25.638
O   6.156   6.711   24.459
C   5.755   8.465   25.870
N   9.149   2.317   26.397
C   8.415   2.912   25.495
C   8.581   2.170   24.090
C   9.534   1.004   24.411
C   9.854   1.229   25.907
C   7.130   1.878   23.484
C   10.813   0.959   23.527
C   10.736   1.204   22.008
N   10.460   1.462   28.915
C   11.116   0.598   28.055
C   11.861   -0.336   28.814
C   11.689   0.098   30.183
C   10.897   1.241   30.168
C   12.559   -1.605   28.371
C   12.106   -0.115   31.613
O   12.992   -0.887   32.045
C   11.416   0.980   32.464
C   10.505   0.303   33.467
O   9.599   -0.382   33.165
O   10.892   0.530   34.768
C   10.330   -0.299   35.780
C   9.697   3.161   38.426
C   9.791   4.377   39.321
C   10.443   4.503   40.522
C   11.225   3.327   41.171
C   10.068   5.584   41.563
C   8.559   5.401   42.022
C   7.881   6.776   41.841
C   8.094   7.723   43.143
C   6.850   7.653   43.965
C   8.522   9.178   42.748
C   9.869   9.601   43.436
C   9.774   11.142   43.723
C   10.166   11.595   45.151
C   10.963   12.977   45.171
C   8.948   11.550   46.048
C   9.146   10.736   47.366
C   8.067   9.669   47.713
C   8.584   8.296   47.990
C   7.438   7.261   48.057
C   9.558   8.263   49.142
H   6.836   5.999   30.861
H   7.149   4.486   24.742
H   11.215   -0.360   26.115
H   8.926   2.581   33.702
H   7.989   5.141   33.206
H   5.977   4.215   33.773
H   6.762   2.572   33.489
H   6.029   3.469   32.172
H   10.253   5.306   33.735
H   11.371   4.149   33.028
H   11.436   4.803   35.463
H   11.723   3.094   35.156
H   6.237   8.539   28.853
H   5.512   7.452   29.951
H   4.849   7.672   28.302
H   6.557   8.909   26.459
H   4.759   8.616   26.287
H   5.764   8.950   24.893
H   9.002   2.979   23.493
H   9.009   0.050   24.389
H   7.066   2.340   22.498
H   6.327   2.170   24.160
H   6.875   0.830   23.329
H   11.097   -0.065   23.771
H   11.536   1.696   23.878
H   9.761   1.651   21.818
H   10.886   0.279   21.451
H   11.598   1.799   21.706
H   13.586   -1.410   28.063
H   11.978   -2.221   27.685
H   12.661   -2.209   29.272
H   12.135   1.706   32.843
H   9.263   -0.455   35.615
H   10.566   0.099   36.767
H   10.760   -1.296   35.872
H   9.924   2.265   39.004
H   8.634   3.060   38.212
H   9.065   5.147   39.059
H   10.786   2.930   42.086
H   12.196   3.750   41.428
H   11.426   2.527   40.459
H   10.219   6.566   41.114
H   10.791   5.507   42.375
H   8.520   5.079   43.063
H   8.038   4.741   41.328
H   6.829   6.567   41.650
H   8.274   7.234   40.932
H   8.851   7.289   43.796
H   5.988   7.918   43.352
H   7.043   8.247   44.859
H   6.607   6.676   44.382
H   7.715   9.860   43.018
H   8.584   9.253   41.662
H   10.487   9.314   42.585
H   10.065   9.142   44.406
H   8.801   11.601   43.548
H   10.560   11.534   43.077
H   10.844   10.812   45.490
H   10.729   13.596   44.305
H   12.034   12.812   45.290
H   10.514   13.565   45.971
H   8.058   11.176   45.542
H   8.517   12.486   46.401
H   9.285   11.295   48.291
H   10.059   10.164   47.203
H   7.309   9.495   46.950
H   7.647   10.029   48.652
H   9.174   7.973   47.132
H   7.428   6.882   49.079
H   7.522   6.482   47.299
H   6.410   7.620   48.004
H   9.456   9.071   49.866
H   10.616   8.307   48.881
H   9.518   7.347   49.731

