%nproc=24
%mem=75GB
#p blyp/Def2SVP td=(nstates=5)

step_551_chromophore_2 TDDFT with blyp functional

0 1
Mg   3.167   -0.814   44.373
C   5.999   1.132   43.854
C   1.303   1.545   42.566
C   0.623   -3.012   44.137
C   5.242   -3.406   45.480
N   3.641   1.071   43.192
C   4.915   1.576   43.060
C   4.931   2.721   42.136
C   3.402   3.111   42.075
C   2.719   1.852   42.627
C   3.047   4.474   42.717
C   5.617   2.360   40.745
C   6.726   3.385   40.252
C   6.719   3.859   38.802
O   6.574   5.025   38.461
O   6.540   2.807   37.936
N   1.162   -0.734   43.625
C   0.623   0.342   42.986
C   -0.743   0.073   42.649
C   -0.986   -1.215   43.115
C   0.243   -1.712   43.679
C   -1.678   1.035   41.852
C   -2.342   -1.901   43.149
O   -3.264   -1.246   42.792
C   -2.631   -3.244   43.758
N   3.004   -2.925   44.649
C   1.826   -3.567   44.506
C   1.956   -5.085   44.876
C   3.428   -5.240   45.406
C   3.955   -3.766   45.146
C   0.947   -5.762   45.917
C   4.264   -6.385   44.667
C   4.948   -7.474   45.495
N   5.115   -1.050   44.810
C   5.794   -2.116   45.349
C   7.135   -1.725   45.589
C   7.193   -0.442   45.129
C   5.981   -0.069   44.614
C   8.262   -2.498   45.977
C   8.146   0.724   44.830
O   9.297   0.907   45.061
C   7.329   1.801   44.064
C   7.190   3.076   44.783
O   8.066   3.928   44.762
O   5.969   3.357   45.400
C   5.924   4.531   46.327
C   6.345   2.983   36.494
C   5.114   2.278   36.005
C   5.133   1.232   35.141
C   6.369   0.447   34.621
C   3.821   0.514   34.663
C   3.535   0.517   33.144
C   2.015   0.459   32.931
C   1.236   1.719   33.355
C   -0.204   1.331   33.963
C   0.910   2.698   32.086
C   0.153   1.977   30.859
C   -1.236   2.595   30.545
C   -1.150   3.496   29.256
C   -1.844   4.864   29.546
C   -1.878   2.766   28.048
C   -1.021   3.002   26.748
C   -1.960   3.265   25.502
C   -1.687   2.296   24.300
C   -1.067   3.043   23.082
C   -2.944   1.449   23.832
H   0.737   2.278   41.988
H   -0.157   -3.774   44.198
H   6.020   -4.113   45.775
H   5.529   3.520   42.576
H   3.075   3.214   41.041
H   2.920   5.341   42.069
H   3.749   4.739   43.508
H   2.108   4.340   43.254
H   4.833   2.359   39.989
H   6.071   1.371   40.801
H   7.676   2.884   40.438
H   6.609   4.279   40.865
H   -2.090   1.770   42.543
H   -2.548   0.555   41.404
H   -1.198   1.555   41.022
H   -2.304   -3.247   44.798
H   -1.983   -3.973   43.271
H   -3.686   -3.456   43.589
H   1.812   -5.525   43.889
H   3.477   -5.242   46.495
H   0.305   -6.456   45.374
H   0.367   -5.010   46.451
H   1.334   -6.358   46.744
H   5.021   -5.891   44.058
H   3.598   -6.977   44.039
H   4.581   -8.414   45.081
H   4.693   -7.294   46.539
H   6.029   -7.359   45.416
H   9.121   -2.181   45.385
H   8.213   -3.585   45.919
H   8.433   -2.296   47.034
H   7.924   2.037   43.182
H   4.863   4.695   46.515
H   6.387   5.431   45.921
H   6.326   4.347   47.323
H   7.288   2.646   36.062
H   6.181   4.026   36.226
H   4.178   2.835   36.035
H   7.287   0.680   35.161
H   6.577   0.615   33.565
H   6.271   -0.620   34.819
H   2.991   0.956   35.216
H   3.844   -0.475   35.122
H   3.885   -0.381   32.634
H   3.879   1.413   32.626
H   1.558   -0.391   33.439
H   1.949   0.195   31.876
H   1.841   2.328   34.027
H   -0.026   0.416   34.527
H   -0.933   1.070   33.196
H   -0.473   2.151   34.629
H   1.883   3.074   31.770
H   0.360   3.564   32.455
H   -0.039   0.913   30.993
H   0.741   2.060   29.944
H   -1.571   3.130   31.434
H   -1.941   1.766   30.484
H   -0.100   3.674   29.024
H   -2.447   4.815   30.452
H   -2.549   5.166   28.771
H   -1.083   5.642   29.618
H   -2.924   3.038   27.907
H   -1.985   1.682   28.097
H   -0.396   2.141   26.511
H   -0.462   3.930   26.870
H   -1.843   4.287   25.143
H   -2.970   3.351   25.903
H   -0.926   1.583   24.618
H   -1.818   3.276   22.328
H   -0.317   2.414   22.604
H   -0.589   3.975   23.384
H   -3.539   2.061   23.155
H   -3.461   1.152   24.745
H   -2.601   0.603   23.237

