%nproc=24
%mem=75GB
#p PBE1PBE/Def2SVP td=(nstates=5)

step_801_chromophore_5 TDDFT with PBE1PBE functional

0 1
Mg   25.372   -5.769   46.487
C   27.132   -2.888   45.595
C   22.792   -4.846   44.472
C   23.983   -8.829   46.766
C   28.235   -6.842   48.040
N   24.976   -4.042   45.276
C   25.931   -3.042   44.966
C   25.444   -2.120   43.802
C   23.871   -2.577   43.688
C   23.823   -3.881   44.536
C   22.980   -1.510   44.316
C   26.227   -2.197   42.435
C   26.407   -1.010   41.522
C   25.552   -1.040   40.226
O   24.295   -0.923   40.163
O   26.361   -1.228   39.140
N   23.574   -6.691   45.798
C   22.572   -6.106   45.048
C   21.503   -7.031   44.874
C   21.798   -8.183   45.638
C   23.123   -7.893   46.183
C   20.214   -6.790   43.993
C   20.905   -9.316   45.764
O   19.878   -9.350   45.144
C   21.278   -10.462   46.668
N   26.064   -7.608   47.171
C   25.265   -8.747   47.234
C   25.900   -9.874   48.029
C   27.343   -9.238   48.365
C   27.243   -7.839   47.853
C   25.093   -10.504   49.282
C   28.536   -10.052   47.805
C   29.525   -10.774   48.716
N   27.257   -5.024   46.885
C   28.339   -5.551   47.527
C   29.470   -4.674   47.549
C   28.985   -3.603   46.768
C   27.617   -3.840   46.453
C   30.829   -4.871   48.171
C   29.415   -2.287   46.205
O   30.399   -1.637   46.342
C   28.240   -1.880   45.289
C   27.860   -0.535   45.638
O   28.234   0.430   45.009
O   27.114   -0.583   46.802
C   26.551   0.655   47.268
C   25.616   -1.228   37.851
C   24.822   -2.466   37.709
C   25.162   -3.705   37.396
C   26.590   -4.151   37.587
C   24.119   -4.766   37.263
C   23.468   -4.629   35.917
C   23.781   -5.936   35.215
C   22.929   -5.903   33.901
C   21.863   -7.088   33.880
C   23.854   -6.049   32.718
C   23.973   -4.749   31.889
C   25.340   -4.752   31.106
C   25.422   -4.088   29.713
C   26.699   -3.227   29.559
C   24.931   -4.957   28.498
C   23.515   -4.644   28.076
C   23.504   -3.536   27.005
C   22.858   -3.986   25.684
C   23.911   -4.569   24.676
C   22.066   -2.861   24.992
H   21.914   -4.640   43.856
H   23.692   -9.880   46.824
H   29.136   -7.123   48.590
H   25.561   -1.095   44.153
H   23.488   -2.708   42.676
H   23.469   -0.540   44.222
H   22.815   -1.607   45.389
H   22.092   -1.405   43.694
H   25.775   -3.037   41.907
H   27.192   -2.624   42.708
H   27.454   -1.022   41.220
H   26.223   -0.146   42.160
H   19.998   -7.530   43.222
H   20.355   -5.896   43.386
H   19.402   -6.662   44.710
H   21.497   -10.042   47.650
H   22.036   -11.159   46.310
H   20.468   -11.165   46.860
H   25.921   -10.668   47.283
H   27.532   -9.229   49.439
H   25.431   -9.985   50.179
H   25.312   -11.572   49.317
H   24.052   -10.203   49.165
H   29.261   -9.431   47.279
H   28.162   -10.794   47.100
H   29.082   -10.943   49.698
H   30.307   -10.050   48.940
H   29.932   -11.641   48.195
H   31.427   -3.963   48.103
H   31.323   -5.745   47.748
H   30.777   -5.138   49.227
H   28.503   -1.854   44.232
H   25.488   0.480   47.437
H   26.584   1.433   46.504
H   27.061   1.047   48.148
H   26.281   -1.153   36.991
H   24.893   -0.419   37.750
H   23.764   -2.204   37.710
H   27.063   -4.417   36.642
H   26.610   -5.018   38.247
H   27.171   -3.384   38.099
H   23.449   -4.581   38.103
H   24.505   -5.752   37.520
H   23.892   -3.809   35.339
H   22.402   -4.556   36.135
H   23.607   -6.854   35.776
H   24.838   -5.906   34.948
H   22.264   -5.042   33.842
H   21.467   -7.198   32.871
H   20.982   -6.739   34.420
H   22.402   -7.991   34.165
H   23.521   -6.877   32.092
H   24.885   -6.391   32.799
H   23.987   -3.965   32.646
H   23.162   -4.631   31.170
H   25.426   -5.800   30.817
H   26.228   -4.415   31.640
H   24.660   -3.323   29.862
H   26.578   -2.248   30.024
H   27.043   -3.199   28.525
H   27.452   -3.573   30.267
H   25.105   -6.033   28.533
H   25.582   -4.760   27.646
H   22.883   -4.486   28.950
H   23.100   -5.570   27.679
H   24.510   -3.165   26.811
H   22.843   -2.745   27.360
H   22.141   -4.794   25.825
H   23.574   -5.376   24.025
H   24.778   -4.800   25.294
H   24.142   -3.715   24.039
H   21.055   -2.841   25.398
H   22.050   -3.053   23.920
H   22.584   -1.912   25.135

