%nproc=24
%mem=75GB
#p wB97XD/Def2SVP td=(nstates=5)

step_351_chromophore_4 TDDFT with wB97XD functional

0 1
Mg   8.813   3.173   27.921
C   10.224   1.683   30.715
C   7.423   5.557   29.931
C   7.416   4.468   25.177
C   10.201   0.623   25.997
N   8.681   3.505   30.161
C   9.442   2.818   31.073
C   9.237   3.417   32.498
C   8.315   4.658   32.172
C   8.116   4.593   30.687
C   6.911   4.685   32.941
C   10.488   3.685   33.318
C   10.316   4.421   34.654
C   10.782   3.648   35.851
O   11.893   3.107   35.944
O   9.780   3.628   36.826
N   7.557   4.865   27.581
C   7.115   5.755   28.532
C   6.368   6.796   27.846
C   6.279   6.507   26.483
C   7.079   5.205   26.363
C   5.711   7.962   28.570
C   5.561   7.217   25.333
O   5.708   6.793   24.206
C   4.688   8.443   25.508
N   8.789   2.609   25.947
C   8.070   3.184   25.003
C   8.202   2.566   23.592
C   9.229   1.441   23.874
C   9.434   1.595   25.403
C   6.747   2.058   23.122
C   10.483   1.687   23.078
C   10.298   1.424   21.563
N   9.867   1.435   28.255
C   10.463   0.548   27.319
C   11.275   -0.421   28.076
C   11.194   -0.026   29.383
C   10.387   1.159   29.470
C   12.068   -1.511   27.573
C   11.641   -0.309   30.684
O   12.339   -1.228   31.160
C   11.166   0.868   31.600
C   10.547   0.111   32.731
O   9.494   -0.529   32.805
O   11.347   0.291   33.843
C   10.724   0.116   35.141
C   10.076   2.998   38.094
C   10.315   4.157   39.021
C   10.944   4.070   40.236
C   11.351   2.740   40.953
C   11.199   5.330   41.113
C   9.846   5.876   41.677
C   9.525   7.372   41.358
C   8.745   8.274   42.378
C   7.470   7.622   42.937
C   8.594   9.734   41.883
C   9.783   10.670   42.139
C   9.609   11.833   43.109
C   10.523   11.979   44.379
C   11.183   13.405   44.424
C   9.816   11.622   45.759
C   10.463   10.532   46.548
C   9.745   9.123   46.290
C   8.958   8.664   47.511
C   9.938   8.017   48.490
C   7.881   7.641   47.057
H   7.134   6.367   30.603
H   6.893   4.814   24.283
H   10.749   -0.159   25.468
H   8.661   2.789   33.177
H   8.863   5.592   32.298
H   6.751   5.693   33.324
H   6.859   3.955   33.750
H   6.088   4.522   32.244
H   11.017   4.284   32.577
H   11.047   2.771   33.518
H   9.281   4.679   34.874
H   10.796   5.399   34.676
H   5.955   8.962   28.209
H   5.920   7.953   29.640
H   4.652   7.747   28.425
H   5.268   9.365   25.471
H   4.111   8.381   26.431
H   3.989   8.416   24.672
H   8.677   3.285   22.925
H   8.697   0.510   23.679
H   5.993   2.772   23.452
H   6.576   1.070   23.550
H   6.843   1.841   22.058
H   11.421   1.197   23.337
H   10.784   2.725   23.217
H   9.315   0.961   21.476
H   11.084   0.775   21.179
H   10.330   2.304   20.920
H   11.891   -2.308   28.295
H   13.092   -1.292   27.270
H   11.591   -1.938   26.691
H   12.076   1.401   31.877
H   9.920   0.807   35.391
H   11.454   0.174   35.949
H   10.359   -0.911   35.138
H   10.789   2.174   38.076
H   9.090   2.578   38.292
H   10.019   5.154   38.695
H   12.366   2.369   40.809
H   10.623   1.980   40.667
H   11.133   2.883   42.011
H   11.656   6.128   40.528
H   11.886   5.136   41.937
H   9.883   5.707   42.753
H   8.933   5.343   41.414
H   8.811   7.367   40.535
H   10.378   7.853   40.879
H   9.487   8.331   43.175
H   6.560   8.069   42.537
H   7.491   7.738   44.020
H   7.482   6.557   42.703
H   7.685   10.171   42.297
H   8.348   9.699   40.821
H   10.149   11.049   41.185
H   10.575   10.034   42.534
H   8.600   11.819   43.520
H   9.463   12.753   42.543
H   11.371   11.361   44.082
H   11.481   13.671   43.409
H   12.040   13.455   45.096
H   10.394   14.076   44.762
H   8.774   11.358   45.581
H   9.947   12.499   46.393
H   10.566   10.824   47.593
H   11.476   10.332   46.200
H   10.534   8.422   46.019
H   9.188   9.231   45.360
H   8.589   9.591   47.949
H   10.163   8.873   49.126
H   10.869   7.742   47.993
H   9.536   7.184   49.066
H   7.554   7.762   46.024
H   6.939   7.819   47.575
H   8.253   6.650   47.319

