%nproc=24
%mem=75GB
#p wB97XD/Def2SVP td=(nstates=5)

step_1451_chromophore_25 TDDFT with wB97XD functional

0 1
Mg   -2.669   34.054   26.578
C   -4.022   32.318   29.357
C   -1.209   36.253   28.862
C   -1.805   35.945   23.921
C   -4.717   32.024   24.394
N   -2.695   34.241   28.922
C   -3.123   33.320   29.816
C   -2.643   33.592   31.287
C   -1.933   35.047   31.054
C   -2.012   35.283   29.520
C   -2.424   36.333   31.899
C   -1.729   32.455   31.962
C   -2.204   31.830   33.380
C   -1.407   32.075   34.664
O   -0.437   31.330   35.070
O   -1.698   33.254   35.221
N   -1.615   35.743   26.434
C   -1.014   36.492   27.478
C   -0.256   37.539   26.902
C   -0.498   37.618   25.482
C   -1.282   36.423   25.206
C   0.611   38.512   27.723
C   -0.094   38.543   24.415
O   -0.576   38.345   23.268
C   0.677   39.740   24.695
N   -3.333   34.038   24.482
C   -2.727   34.887   23.645
C   -3.238   34.562   22.177
C   -3.887   33.154   22.326
C   -3.962   33.047   23.863
C   -4.116   35.637   21.529
C   -2.974   31.947   21.806
C   -3.358   31.305   20.479
N   -4.178   32.537   26.730
C   -4.845   31.751   25.805
C   -5.614   30.724   26.520
C   -5.296   30.949   27.866
C   -4.461   32.074   28.004
C   -6.201   29.597   25.817
C   -5.413   30.334   29.216
O   -5.990   29.323   29.576
C   -4.695   31.206   30.207
C   -5.746   31.596   31.224
O   -6.798   32.175   30.911
O   -5.231   31.310   32.506
C   -6.169   31.719   33.524
C   -0.745   33.754   36.246
C   -1.642   33.995   37.440
C   -1.327   33.888   38.752
C   0.128   33.574   39.219
C   -2.274   34.389   39.821
C   -2.011   35.808   40.304
C   -1.119   35.899   41.595
C   -1.630   37.029   42.526
C   -1.314   38.428   42.007
C   -1.404   36.849   44.106
C   -0.013   37.368   44.534
C   0.447   36.685   45.770
C   1.262   35.416   45.552
C   0.909   34.501   46.753
C   2.781   35.794   45.536
C   3.587   34.772   44.656
C   4.593   35.580   43.730
C   4.800   34.865   42.372
C   5.749   33.664   42.525
C   5.068   35.780   41.165
H   -0.631   36.897   29.527
H   -1.458   36.373   22.979
H   -5.140   31.332   23.662
H   -3.577   33.735   31.831
H   -0.883   34.892   31.303
H   -2.981   35.982   32.767
H   -3.077   37.012   31.351
H   -1.529   36.928   32.084
H   -0.696   32.740   32.162
H   -1.694   31.685   31.191
H   -2.379   30.760   33.270
H   -3.174   32.201   33.713
H   0.634   38.264   28.785
H   0.242   39.534   27.636
H   1.604   38.469   27.276
H   0.999   40.377   23.871
H   1.516   39.480   25.340
H   -0.005   40.374   25.262
H   -2.381   34.562   21.503
H   -4.883   33.149   21.883
H   -4.299   36.352   22.331
H   -5.085   35.276   21.187
H   -3.552   36.203   20.787
H   -2.945   31.153   22.552
H   -1.931   32.233   21.665
H   -3.525   30.228   20.461
H   -2.559   31.468   19.755
H   -4.289   31.768   20.151
H   -5.371   28.925   25.597
H   -6.760   29.798   24.903
H   -6.829   28.982   26.462
H   -3.880   30.701   30.726
H   -5.609   32.301   34.256
H   -6.699   30.882   33.980
H   -6.879   32.506   33.269
H   -0.258   34.702   36.018
H   0.064   33.075   36.517
H   -2.710   34.184   37.331
H   0.847   34.168   38.656
H   0.369   32.515   39.129
H   0.302   33.908   40.242
H   -2.292   33.644   40.617
H   -3.287   34.341   39.424
H   -2.954   36.349   40.390
H   -1.435   36.248   39.490
H   -0.120   36.164   41.248
H   -1.050   34.921   42.073
H   -2.713   37.011   42.406
H   -1.670   38.602   40.991
H   -0.239   38.602   42.045
H   -1.820   39.115   42.685
H   -1.509   35.790   44.342
H   -2.167   37.447   44.605
H   -0.154   38.382   44.907
H   0.837   37.387   43.852
H   -0.461   36.501   46.343
H   1.021   37.356   46.409
H   0.878   35.138   44.570
H   0.025   33.906   46.524
H   0.776   35.104   47.652
H   1.701   33.789   46.987
H   3.224   35.736   46.530
H   2.955   36.843   45.298
H   2.866   34.134   44.144
H   4.219   34.036   45.153
H   5.524   35.738   44.274
H   4.239   36.606   43.627
H   3.848   34.369   42.182
H   6.319   33.478   41.614
H   5.105   32.789   42.611
H   6.413   33.727   43.387
H   4.224   35.657   40.487
H   5.919   35.526   40.533
H   5.263   36.832   41.375

