%nproc=24
%mem=75GB
#p wB97XD/Def2SVP td=(nstates=5)

step_1151_chromophore_20 TDDFT with wB97XD functional

0 1
Mg   5.967   57.210   42.074
C   5.187   53.822   41.477
C   9.216   56.479   40.853
C   6.559   60.400   41.944
C   2.531   57.710   42.670
N   6.996   55.436   41.187
C   6.493   54.120   41.109
C   7.621   53.125   40.661
C   8.897   53.889   40.995
C   8.335   55.376   41.065
C   9.601   53.501   42.343
C   7.567   52.854   39.142
C   7.906   51.373   38.672
C   7.458   50.837   37.330
O   8.138   50.022   36.751
O   6.296   51.334   36.857
N   7.632   58.293   41.396
C   8.886   57.845   41.063
C   9.751   59.023   40.703
C   8.991   60.153   41.033
C   7.672   59.624   41.509
C   11.158   58.868   40.275
C   9.479   61.569   41.006
O   10.590   61.918   40.572
C   8.559   62.713   41.524
N   4.759   58.790   42.225
C   5.310   60.056   42.359
C   4.248   61.116   42.773
C   2.924   60.301   42.849
C   3.405   58.807   42.497
C   4.711   61.854   44.068
C   1.862   60.778   41.790
C   0.395   60.945   42.185
N   4.194   56.015   42.059
C   2.956   56.339   42.464
C   2.134   55.182   42.612
C   2.979   54.163   42.165
C   4.192   54.768   41.778
C   0.706   55.150   43.115
C   2.989   52.760   41.884
O   2.125   51.931   42.072
C   4.483   52.528   41.437
C   4.362   51.967   40.090
O   3.766   52.496   39.116
O   4.918   50.742   39.992
C   4.322   49.815   39.048
C   5.817   50.755   35.554
C   6.528   51.365   34.374
C   6.242   51.199   33.027
C   5.058   50.347   32.485
C   7.014   51.954   31.973
C   6.707   53.445   31.965
C   6.209   53.873   30.593
C   6.397   55.370   30.285
C   5.160   55.820   29.438
C   7.797   55.710   29.735
C   8.582   56.859   30.309
C   9.701   56.312   31.233
C   11.049   56.030   30.426
C   12.009   54.994   31.086
C   11.663   57.406   30.079
C   11.911   57.554   28.634
C   13.271   58.234   28.405
C   14.350   57.201   27.839
C   15.519   56.870   28.881
C   14.851   57.784   26.519
H   10.255   56.277   40.584
H   6.738   61.434   42.245
H   1.515   57.771   43.066
H   7.584   52.167   41.179
H   9.613   54.035   40.186
H   9.345   54.369   42.951
H   10.672   53.299   42.366
H   9.119   52.666   42.851
H   8.280   53.533   38.673
H   6.701   53.405   38.773
H   7.787   50.636   39.467
H   8.975   51.511   38.510
H   11.813   59.588   40.767
H   11.358   58.739   39.211
H   11.498   57.960   40.772
H   8.406   62.478   42.578
H   7.586   62.714   41.032
H   9.009   63.693   41.371
H   4.165   61.851   41.973
H   2.383   60.240   43.793
H   5.621   61.500   44.552
H   3.947   61.744   44.838
H   4.876   62.921   43.919
H   1.843   60.099   40.938
H   2.264   61.720   41.416
H   0.022   61.948   41.980
H   0.131   60.704   43.215
H   -0.222   60.276   41.585
H   0.782   54.247   43.721
H   0.246   55.176   42.127
H   0.363   55.975   43.738
H   4.886   51.766   42.104
H   3.242   49.727   39.165
H   4.730   48.807   39.121
H   4.289   50.320   38.082
H   4.738   50.901   35.492
H   5.943   49.672   35.538
H   7.512   51.789   34.575
H   4.434   49.950   33.286
H   5.543   49.556   31.913
H   4.365   50.888   31.841
H   6.798   51.520   30.996
H   8.060   51.746   32.199
H   7.597   54.009   32.245
H   6.012   53.577   32.794
H   5.146   53.633   30.586
H   6.685   53.316   29.786
H   6.418   55.844   31.267
H   5.471   56.647   28.800
H   4.354   56.223   30.052
H   4.694   55.033   28.846
H   7.713   55.918   28.668
H   8.394   54.802   29.813
H   7.852   57.491   30.816
H   8.965   57.393   29.440
H   9.430   55.384   31.736
H   9.840   57.166   31.895
H   10.862   55.509   29.487
H   11.799   54.043   30.596
H   11.692   54.950   32.128
H   13.015   55.361   30.886
H   12.585   57.538   30.647
H   11.164   58.289   30.480
H   11.092   58.165   28.256
H   11.791   56.629   28.071
H   13.613   58.755   29.300
H   13.110   59.077   27.733
H   14.014   56.174   27.699
H   16.346   57.577   28.819
H   15.904   55.863   28.724
H   15.092   56.955   29.880
H   14.951   56.976   25.794
H   15.820   58.260   26.668
H   14.057   58.412   26.114

