%nproc=24
%mem=75GB
#p wB97XD/Def2SVP td=(nstates=5)

step_1151_chromophore_11 TDDFT with wB97XD functional

0 1
Mg   52.899   22.937   44.494
C   50.535   25.492   43.815
C   50.609   20.643   43.228
C   55.366   20.677   44.132
C   55.203   25.329   45.459
N   50.877   23.066   43.570
C   50.109   24.217   43.448
C   48.674   23.805   43.140
C   48.663   22.211   43.389
C   50.118   21.951   43.430
C   47.829   21.674   44.593
C   48.057   24.195   41.798
C   48.842   23.999   40.481
C   48.201   23.116   39.344
O   47.583   22.095   39.569
O   48.296   23.677   38.106
N   52.984   20.906   43.869
C   51.904   20.156   43.383
C   52.317   18.807   43.160
C   53.742   18.808   43.332
C   54.113   20.152   43.719
C   51.308   17.796   42.815
C   54.660   17.654   43.007
O   54.223   16.547   42.698
C   56.116   17.732   43.081
N   54.959   22.984   44.720
C   55.818   21.898   44.647
C   57.211   22.264   45.161
C   57.161   23.749   45.283
C   55.670   24.057   45.180
C   57.706   21.468   46.397
C   58.105   24.483   44.303
C   59.251   25.209   44.975
N   52.901   24.969   44.718
C   53.908   25.808   45.132
C   53.387   27.188   45.178
C   52.074   27.071   44.657
C   51.823   25.742   44.441
C   54.143   28.431   45.720
C   50.967   27.865   44.300
O   50.676   29.088   44.360
C   49.882   26.852   43.830
C   49.441   27.275   42.420
O   50.215   27.400   41.497
O   48.139   27.573   42.377
C   47.498   28.123   41.221
C   47.565   22.992   37.067
C   48.661   22.283   36.345
C   48.568   21.080   35.715
C   47.349   20.102   35.800
C   49.757   20.385   35.207
C   50.642   21.008   34.079
C   51.223   19.993   33.052
C   52.481   19.321   33.650
C   53.804   19.938   33.096
C   52.254   17.720   33.531
C   52.379   17.198   32.066
C   51.484   16.023   31.739
C   52.126   14.887   30.898
C   53.100   13.914   31.794
C   52.946   15.425   29.660
C   53.143   14.304   28.611
C   53.158   14.776   27.123
C   52.822   13.697   26.048
C   53.702   12.401   26.233
C   52.994   14.253   24.600
H   49.831   19.927   42.953
H   56.189   19.968   44.025
H   55.956   26.063   45.754
H   48.034   24.222   43.918
H   48.178   21.720   42.545
H   47.439   22.436   45.269
H   48.409   21.011   45.235
H   47.011   21.098   44.160
H   47.828   25.253   41.927
H   47.129   23.639   41.660
H   49.726   23.459   40.820
H   49.236   24.890   39.993
H   50.994   18.009   41.793
H   50.726   17.840   43.736
H   51.641   16.760   42.750
H   56.526   16.825   42.636
H   56.557   17.866   44.068
H   56.435   18.539   42.422
H   57.917   21.986   44.379
H   57.493   24.026   46.284
H   57.032   20.708   46.794
H   58.088   21.997   47.270
H   58.496   20.793   46.069
H   57.461   25.055   43.635
H   58.502   23.746   43.605
H   60.121   25.022   44.346
H   59.439   24.911   46.007
H   59.004   26.270   44.940
H   54.745   27.937   46.483
H   53.536   29.159   46.259
H   54.810   29.051   45.121
H   49.058   26.959   44.536
H   48.051   29.036   41.002
H   46.517   28.466   41.551
H   47.586   27.445   40.372
H   47.185   23.703   36.334
H   46.783   22.353   37.477
H   49.575   22.877   36.344
H   47.085   19.773   34.795
H   46.450   20.554   36.218
H   47.621   19.227   36.391
H   49.525   19.389   34.829
H   50.393   20.164   36.064
H   51.398   21.658   34.518
H   50.048   21.666   33.444
H   51.376   20.526   32.113
H   50.422   19.292   32.817
H   52.467   19.479   34.728
H   54.448   20.291   33.901
H   53.565   20.806   32.482
H   54.213   19.148   32.467
H   51.274   17.422   33.905
H   53.024   17.266   34.154
H   53.419   16.870   32.052
H   52.216   18.066   31.427
H   50.654   16.344   31.110
H   51.135   15.522   32.642
H   51.400   14.205   30.455
H   53.025   14.255   32.826
H   54.139   14.085   31.510
H   52.924   12.883   31.486
H   53.941   15.805   29.894
H   52.468   16.271   29.165
H   52.453   13.486   28.819
H   54.185   13.984   28.606
H   54.186   15.109   26.975
H   52.510   15.650   27.067
H   51.771   13.409   26.019
H   53.433   11.809   25.358
H   53.527   11.721   27.067
H   54.764   12.647   26.196
H   52.672   15.292   24.673
H   52.213   13.683   24.096
H   53.973   14.140   24.136

