%nproc=24
%mem=75GB
#p PBE1PBE/Def2SVP td=(nstates=5)

step_401_chromophore_18 TDDFT with PBE1PBE functional

0 1
Mg   34.837   49.313   25.046
C   34.906   47.522   28.070
C   32.932   51.810   26.699
C   34.721   51.103   22.313
C   36.195   46.551   23.424
N   34.069   49.677   27.101
C   34.375   48.877   28.201
C   34.096   49.576   29.528
C   33.242   50.778   29.076
C   33.468   50.786   27.535
C   31.768   50.708   29.373
C   35.357   49.751   30.438
C   35.207   49.500   31.909
C   33.757   49.440   32.468
O   33.178   48.444   32.751
O   33.333   50.670   32.793
N   33.906   51.211   24.522
C   33.160   52.038   25.345
C   32.799   53.191   24.606
C   33.371   52.978   23.301
C   33.968   51.705   23.341
C   32.115   54.304   25.202
C   33.248   53.840   22.019
O   33.776   53.645   20.903
C   32.322   54.998   22.138
N   35.429   48.874   23.144
C   35.285   49.818   22.203
C   35.589   49.137   20.855
C   36.283   47.773   21.226
C   35.938   47.717   22.635
C   34.325   49.072   19.916
C   37.822   47.601   20.883
C   38.835   48.128   21.893
N   35.405   47.456   25.602
C   36.036   46.414   24.831
C   36.248   45.229   25.677
C   35.793   45.659   26.949
C   35.393   47.011   26.857
C   36.726   43.906   25.285
C   35.552   45.178   28.217
O   35.716   44.090   28.668
C   35.091   46.389   29.110
C   33.851   45.911   29.797
O   32.794   45.708   29.240
O   34.066   45.747   31.087
C   32.926   45.370   31.876
C   32.268   50.780   33.656
C   31.735   52.270   33.576
C   30.906   52.847   34.527
C   30.307   52.120   35.713
C   30.608   54.372   34.469
C   31.773   55.311   34.091
C   31.187   56.735   33.825
C   31.599   57.815   34.920
C   33.085   58.086   34.883
C   30.728   59.125   34.804
C   29.535   59.204   35.756
C   29.805   60.080   37.013
C   29.320   61.565   36.812
C   30.176   62.602   37.606
C   27.787   61.632   37.258
C   26.911   62.305   36.233
C   25.741   62.981   36.961
C   25.804   64.541   36.852
C   25.777   65.045   38.259
C   24.634   65.062   35.935
H   32.379   52.605   27.203
H   34.796   51.635   21.363
H   36.637   45.770   22.802
H   33.412   48.850   29.967
H   33.571   51.753   29.436
H   31.584   49.856   30.028
H   31.027   50.583   28.584
H   31.537   51.596   29.961
H   35.804   50.701   30.143
H   36.057   49.009   30.054
H   35.807   50.297   32.348
H   35.537   48.465   32.006
H   32.512   55.281   24.926
H   31.939   54.285   26.278
H   31.038   54.306   25.031
H   31.410   54.776   22.691
H   32.009   55.346   21.154
H   32.833   55.835   22.614
H   36.304   49.793   20.358
H   35.731   47.051   20.625
H   34.390   49.759   19.073
H   33.438   49.291   20.512
H   34.268   48.066   19.500
H   37.822   48.138   19.934
H   37.998   46.530   20.788
H   39.385   48.972   21.475
H   39.532   47.345   22.190
H   38.318   48.566   22.747
H   36.083   43.395   24.568
H   36.805   43.229   26.135
H   37.733   44.012   24.881
H   35.836   46.659   29.859
H   32.656   44.363   31.556
H   32.125   46.106   31.805
H   33.343   45.493   32.875
H   32.706   50.655   34.646
H   31.402   50.192   33.350
H   32.099   52.965   32.820
H   31.054   52.268   36.493
H   29.975   51.083   35.675
H   29.381   52.630   35.981
H   30.280   54.716   35.450
H   29.804   54.475   33.740
H   32.285   54.987   33.185
H   32.517   55.533   34.856
H   30.112   56.688   34.003
H   31.396   56.988   32.785
H   31.309   57.445   35.903
H   33.382   59.127   35.016
H   33.427   57.818   33.884
H   33.554   57.524   35.691
H   30.428   59.419   33.798
H   31.399   59.950   35.043
H   29.339   58.216   36.174
H   28.686   59.516   35.148
H   30.884   60.221   37.085
H   29.526   59.519   37.905
H   29.435   61.807   35.756
H   29.555   63.348   38.102
H   30.854   63.100   36.913
H   30.794   62.083   38.339
H   27.755   62.068   38.257
H   27.383   60.620   37.281
H   26.584   61.632   35.440
H   27.540   63.010   35.689
H   25.487   62.548   37.929
H   24.913   62.580   36.377
H   26.744   64.894   36.428
H   26.297   66.002   38.289
H   26.234   64.318   38.931
H   24.775   65.209   38.657
H   23.953   64.313   35.532
H   24.981   65.516   35.007
H   24.058   65.868   36.389

