%nproc=24
%mem=50gb
#p ZINDO=(nstates=5)

step_651_chromophore_17 ZINDO

0 1
Mg   29.490   59.278   40.736
C   26.233   57.955   40.105
C   30.739   56.425   39.471
C   32.213   60.916   40.325
C   27.714   62.425   41.258
N   28.543   57.420   39.855
C   27.240   57.059   39.756
C   27.120   55.704   38.994
C   28.583   55.105   39.172
C   29.361   56.445   39.523
C   28.729   53.883   40.197
C   26.617   56.025   37.587
C   25.566   55.119   36.960
C   25.974   54.600   35.544
O   26.822   53.814   35.238
O   25.269   55.321   34.591
N   31.267   58.721   40.089
C   31.653   57.483   39.697
C   33.079   57.463   39.573
C   33.546   58.791   39.753
C   32.313   59.557   39.987
C   33.923   56.197   39.228
C   34.969   59.279   39.528
O   35.856   58.462   39.439
C   35.357   60.755   39.586
N   29.851   61.516   40.413
C   31.196   61.804   40.524
C   31.311   63.386   40.809
C   29.875   63.872   40.896
C   29.067   62.521   40.888
C   32.183   63.646   42.101
C   29.332   64.804   39.788
C   29.906   66.199   39.799
N   27.424   59.972   41.059
C   26.916   61.251   41.228
C   25.482   61.162   41.318
C   25.120   59.864   40.883
C   26.365   59.211   40.712
C   24.574   62.386   41.501
C   24.035   58.920   40.571
O   22.780   58.927   40.613
C   24.708   57.705   39.946
C   24.213   56.450   40.707
O   24.416   56.183   41.870
O   23.631   55.595   39.849
C   22.987   54.381   40.330
C   25.509   54.938   33.157
C   26.488   55.883   32.456
C   27.163   55.659   31.321
C   27.054   54.439   30.295
C   28.251   56.604   30.951
C   27.754   58.000   30.569
C   28.553   59.214   31.196
C   29.552   59.770   30.173
C   29.234   61.202   29.731
C   31.045   59.719   30.672
C   31.809   58.671   29.868
C   32.709   57.708   30.684
C   32.963   56.326   30.015
C   31.937   55.317   30.360
C   34.385   55.842   30.252
C   35.223   55.574   28.990
C   35.497   54.127   28.609
C   36.711   54.073   27.588
C   36.319   54.241   26.092
C   37.487   52.733   27.709
H   31.128   55.465   39.126
H   33.107   61.542   40.277
H   27.322   63.413   41.508
H   26.471   55.031   39.554
H   29.074   54.765   38.260
H   28.831   54.172   41.243
H   29.553   53.246   39.877
H   27.846   53.243   40.194
H   27.456   56.114   36.897
H   26.159   57.014   37.562
H   24.623   55.665   36.942
H   25.366   54.357   37.712
H   34.444   56.172   38.272
H   33.312   55.297   39.304
H   34.694   56.117   39.994
H   34.814   61.356   38.857
H   36.423   60.782   39.364
H   35.311   61.127   40.610
H   31.787   63.777   39.910
H   29.674   64.348   41.856
H   32.746   62.755   42.380
H   31.483   63.902   42.897
H   32.916   64.411   41.843
H   28.255   64.904   39.929
H   29.529   64.379   38.804
H   30.348   66.219   38.803
H   30.682   66.288   40.559
H   29.038   66.853   39.884
H   23.525   62.203   41.732
H   24.601   63.024   40.619
H   25.046   62.974   42.288
H   24.370   57.613   38.914
H   22.318   54.123   39.509
H   22.415   54.486   41.252
H   23.724   53.613   40.567
H   24.574   55.015   32.603
H   25.816   53.912   32.954
H   26.676   56.817   32.985
H   26.788   54.892   29.340
H   26.268   53.726   30.544
H   27.960   53.850   30.153
H   28.695   56.186   30.048
H   28.988   56.720   31.746
H   26.703   58.126   30.830
H   27.812   58.030   29.481
H   29.005   58.929   32.146
H   27.853   59.991   31.504
H   29.495   59.231   29.227
H   29.822   61.998   30.187
H   28.219   61.586   29.841
H   29.309   61.307   28.649
H   31.111   59.440   31.724
H   31.577   60.669   30.628
H   32.468   59.008   29.068
H   31.135   57.973   29.372
H   32.374   57.692   31.721
H   33.710   58.139   30.682
H   32.834   56.585   28.964
H   31.449   55.676   31.266
H   32.274   54.299   30.554
H   31.212   55.269   29.547
H   34.401   54.910   30.817
H   34.926   56.615   30.799
H   36.107   56.184   29.178
H   34.671   55.999   28.152
H   34.540   53.878   28.151
H   35.618   53.644   29.579
H   37.338   54.934   27.820
H   36.365   53.323   25.505
H   37.055   54.888   25.616
H   35.310   54.653   26.100
H   38.139   52.777   28.582
H   38.133   52.629   26.838
H   36.821   51.876   27.807

