%nproc=24
%mem=50gb
#p ZINDO=(nstates=5)

step_601_chromophore_19 ZINDO

0 1
Mg   25.673   50.996   26.065
C   23.553   51.964   28.716
C   28.005   50.131   28.493
C   27.937   50.490   23.550
C   23.280   52.200   23.736
N   25.818   51.112   28.391
C   24.733   51.373   29.240
C   25.161   51.082   30.757
C   26.695   50.703   30.572
C   26.881   50.648   29.083
C   27.757   51.573   31.271
C   24.154   50.105   31.421
C   23.521   50.545   32.725
C   24.477   51.285   33.709
O   24.587   52.493   33.798
O   25.274   50.477   34.428
N   27.697   50.380   26.017
C   28.455   49.972   27.139
C   29.680   49.416   26.715
C   29.744   49.528   25.259
C   28.442   50.182   24.855
C   30.693   48.725   27.706
C   30.787   49.224   24.384
O   30.742   49.344   23.134
C   32.008   48.595   24.839
N   25.696   51.401   23.975
C   26.753   51.038   23.115
C   26.363   51.257   21.623
C   24.868   51.882   21.642
C   24.547   51.753   23.216
C   27.414   52.090   20.821
C   23.797   51.251   20.589
C   23.773   52.002   19.202
N   23.865   52.024   26.175
C   22.988   52.403   25.151
C   21.868   53.151   25.796
C   22.022   53.023   27.206
C   23.240   52.272   27.356
C   20.829   53.904   25.081
C   21.469   53.365   28.521
O   20.502   54.059   28.846
C   22.449   52.674   29.541
C   22.981   53.765   30.415
O   23.781   54.648   29.999
O   22.397   53.719   31.712
C   22.723   54.821   32.567
C   26.131   51.017   35.478
C   25.571   50.406   36.771
C   25.752   50.854   38.024
C   26.655   52.010   38.332
C   25.223   50.141   39.239
C   26.052   49.234   40.179
C   25.920   47.725   39.979
C   26.217   47.086   41.387
C   26.680   45.607   41.166
C   25.012   47.027   42.360
C   25.558   47.294   43.809
C   25.297   48.812   44.308
C   26.352   49.110   45.339
C   26.073   48.479   46.721
C   26.484   50.650   45.458
C   27.887   51.105   45.015
C   28.101   52.537   45.057
C   28.602   53.111   43.642
C   30.124   52.910   43.556
C   28.150   54.539   43.367
H   28.600   49.609   29.245
H   28.613   50.283   22.717
H   22.409   52.460   23.131
H   25.099   52.074   31.204
H   26.789   49.651   30.842
H   28.382   52.061   30.522
H   28.278   51.067   32.084
H   27.184   52.336   31.798
H   24.603   49.156   31.713
H   23.292   49.937   30.774
H   23.260   49.582   33.164
H   22.579   51.056   32.524
H   30.332   48.694   28.734
H   31.600   49.328   27.667
H   30.986   47.756   27.303
H   31.831   47.575   25.178
H   32.415   49.271   25.591
H   32.742   48.604   24.033
H   26.355   50.233   21.248
H   24.776   52.955   21.476
H   28.244   52.407   21.454
H   26.942   52.956   20.357
H   27.838   51.470   20.031
H   22.798   51.359   21.009
H   23.989   50.189   20.431
H   24.521   51.543   18.555
H   24.105   53.040   19.189
H   22.715   51.988   18.941
H   19.924   53.301   25.008
H   21.204   54.168   24.092
H   20.693   54.777   25.720
H   21.927   51.912   30.120
H   22.875   55.767   32.046
H   23.610   54.518   33.123
H   21.896   54.913   33.271
H   26.117   52.102   35.384
H   27.105   50.530   35.428
H   24.756   49.720   36.542
H   27.142   51.798   39.283
H   26.042   52.882   38.558
H   27.384   51.999   37.521
H   24.348   49.544   38.983
H   24.823   51.015   39.752
H   25.954   49.614   41.196
H   27.093   49.456   39.945
H   26.750   47.334   39.391
H   25.004   47.307   39.563
H   27.002   47.694   41.837
H   27.579   45.478   40.564
H   25.832   45.107   40.697
H   26.929   45.105   42.101
H   24.469   46.081   42.339
H   24.256   47.761   42.082
H   26.571   46.906   43.917
H   24.979   46.674   44.493
H   24.386   48.778   44.906
H   25.259   49.542   43.500
H   27.325   48.662   45.136
H   25.641   47.483   46.624
H   25.322   48.981   47.332
H   26.993   48.374   47.295
H   26.399   50.889   46.518
H   25.726   51.193   44.892
H   27.951   50.792   43.973
H   28.631   50.590   45.622
H   28.791   52.701   45.885
H   27.200   53.108   45.283
H   28.178   52.634   42.759
H   30.435   52.097   44.212
H   30.733   53.778   43.805
H   30.388   52.581   42.551
H   28.563   55.172   44.152
H   27.060   54.553   43.331
H   28.672   54.908   42.484

