%nproc=24
%mem=75GB
#p cam-b3lyp/Def2SVP td=(nstates=5)

step_1051_chromophore_11 TDDFT with cam-b3lyp functional

0 1
Mg   52.888   23.815   45.100
C   50.121   25.777   44.414
C   50.986   21.143   43.904
C   55.789   22.090   44.854
C   54.741   26.808   45.682
N   50.724   23.557   44.166
C   49.796   24.531   44.057
C   48.529   23.935   43.475
C   48.665   22.357   43.812
C   50.242   22.284   44.033
C   47.988   21.815   45.095
C   47.923   24.281   42.051
C   48.946   24.019   40.973
C   48.436   24.368   39.511
O   48.585   25.412   38.881
O   47.749   23.269   38.991
N   53.331   21.911   44.458
C   52.448   20.926   44.018
C   53.136   19.747   43.694
C   54.503   19.960   44.002
C   54.616   21.373   44.556
C   52.408   18.556   43.152
C   55.668   18.848   43.814
O   55.435   17.704   43.548
C   57.069   19.052   44.339
N   54.914   24.336   45.127
C   55.981   23.486   45.111
C   57.354   24.116   45.480
C   56.942   25.650   45.515
C   55.432   25.602   45.419
C   57.892   23.439   46.838
C   57.588   26.407   44.313
C   58.656   27.390   44.719
N   52.521   25.870   45.316
C   53.329   26.951   45.636
C   52.509   28.113   45.899
C   51.272   27.791   45.321
C   51.300   26.390   44.969
C   52.921   29.495   46.368
C   49.978   28.297   44.898
O   49.497   29.412   44.995
C   49.247   27.017   44.349
C   48.863   27.354   42.956
O   49.552   27.311   41.978
O   47.561   27.789   42.868
C   47.002   28.106   41.536
C   47.498   23.216   37.570
C   48.347   22.193   36.866
C   48.098   20.946   36.438
C   46.799   20.293   36.560
C   49.272   20.060   35.882
C   50.254   20.554   34.783
C   50.918   19.443   34.031
C   52.420   19.295   34.458
C   53.252   20.328   33.702
C   52.967   17.899   34.261
C   53.244   17.484   32.807
C   53.132   15.950   32.548
C   51.850   15.550   31.874
C   51.034   14.634   32.788
C   52.164   14.824   30.523
C   52.120   15.880   29.333
C   53.260   15.729   28.280
C   52.779   15.101   26.853
C   53.334   13.618   26.613
C   53.166   16.029   25.637
H   50.416   20.233   43.707
H   56.792   21.660   44.819
H   55.319   27.679   45.996
H   47.718   24.338   44.082
H   48.476   21.776   42.909
H   48.280   20.789   45.320
H   46.905   21.860   44.978
H   48.262   22.335   46.013
H   47.364   25.205   41.903
H   47.157   23.509   41.985
H   49.379   23.020   40.917
H   49.830   24.641   41.116
H   52.922   18.276   42.233
H   51.328   18.610   43.015
H   52.582   17.815   43.932
H   57.642   18.128   44.418
H   56.851   19.443   45.333
H   57.484   19.797   43.660
H   58.192   23.917   44.812
H   57.280   26.076   46.459
H   58.033   24.248   47.555
H   58.872   22.966   46.771
H   57.182   22.775   47.332
H   56.866   27.051   43.812
H   57.973   25.732   43.548
H   58.343   28.433   44.675
H   59.491   27.207   44.042
H   58.946   27.158   45.744
H   52.083   30.146   46.117
H   53.763   29.903   45.809
H   53.147   29.483   47.434
H   48.294   26.803   44.833
H   46.144   28.743   41.749
H   46.610   27.256   40.977
H   47.752   28.633   40.947
H   47.688   24.181   37.100
H   46.424   23.038   37.514
H   49.370   22.566   36.823
H   46.389   20.207   35.553
H   46.163   20.891   37.213
H   46.780   19.327   37.065
H   48.924   19.064   35.610
H   49.947   19.793   36.696
H   51.073   21.110   35.238
H   49.577   21.181   34.202
H   50.818   19.605   32.958
H   50.527   18.445   34.230
H   52.570   19.388   35.533
H   53.229   21.250   34.283
H   52.817   20.655   32.757
H   54.261   19.979   33.483
H   52.173   17.329   34.745
H   53.826   17.592   34.858
H   54.261   17.799   32.573
H   52.564   18.037   32.158
H   53.206   15.408   33.491
H   54.029   15.662   32.000
H   51.226   16.434   31.744
H   51.608   13.817   33.225
H   50.244   14.176   32.193
H   50.581   15.220   33.588
H   51.448   14.036   30.290
H   53.134   14.325   30.536
H   52.191   16.881   29.760
H   51.158   15.793   28.827
H   53.948   15.017   28.736
H   53.740   16.692   28.107
H   51.691   15.165   26.872
H   53.143   13.388   25.565
H   52.703   12.925   27.171
H   54.372   13.429   26.886
H   53.207   17.055   26.005
H   52.377   15.902   24.896
H   54.049   15.641   25.128

