%nproc=24
%mem=75GB
#p cam-b3lyp/Def2SVP td=(nstates=5)

step_1251_chromophore_18 TDDFT with cam-b3lyp functional

0 1
Mg   34.034   49.758   25.231
C   34.467   48.081   28.347
C   32.463   52.390   26.965
C   33.118   51.224   22.285
C   35.336   47.026   23.544
N   33.716   50.301   27.432
C   33.907   49.427   28.496
C   33.423   50.075   29.766
C   32.744   51.421   29.319
C   32.953   51.456   27.781
C   31.262   51.716   29.705
C   34.628   50.267   30.708
C   34.379   50.293   32.209
C   32.939   50.204   32.675
O   32.364   49.167   32.858
O   32.459   51.479   32.828
N   32.964   51.607   24.699
C   32.447   52.543   25.566
C   31.878   53.654   24.802
C   31.937   53.305   23.423
C   32.665   52.010   23.417
C   31.275   54.800   25.603
C   31.504   54.049   22.178
O   31.678   53.666   21.061
C   30.714   55.395   22.335
N   34.102   49.250   23.202
C   33.694   49.919   22.181
C   34.089   49.299   20.843
C   35.031   48.131   21.288
C   34.811   48.112   22.805
C   32.984   48.870   19.936
C   36.545   48.228   20.833
C   37.620   48.602   21.911
N   34.742   47.923   25.789
C   35.229   46.885   25.000
C   35.599   45.777   25.798
C   35.365   46.219   27.108
C   34.828   47.532   27.057
C   36.092   44.423   25.293
C   35.398   45.754   28.514
O   35.891   44.762   28.970
C   34.803   46.955   29.346
C   33.566   46.411   30.079
O   32.431   46.208   29.605
O   33.892   46.244   31.468
C   32.678   45.798   32.122
C   31.340   51.577   33.731
C   31.117   53.002   34.020
C   30.160   53.545   34.764
C   29.138   52.756   35.412
C   29.892   55.040   34.718
C   30.736   55.629   35.839
C   31.848   56.687   35.339
C   31.977   57.909   36.385
C   33.440   58.417   36.456
C   31.055   59.065   35.965
C   30.066   59.434   37.046
C   30.549   60.534   38.038
C   29.787   61.834   37.796
C   30.751   63.054   37.865
C   28.530   62.039   38.617
C   27.237   62.455   37.853
C   26.392   63.533   38.666
C   26.516   65.004   38.090
C   25.981   65.998   39.203
C   25.700   65.155   36.784
H   31.898   53.042   27.635
H   32.818   51.723   21.360
H   35.809   46.224   22.973
H   32.722   49.416   30.279
H   33.340   52.258   29.683
H   31.198   52.691   30.188
H   30.879   50.982   30.414
H   30.607   51.589   28.842
H   35.035   51.270   30.585
H   35.329   49.453   30.525
H   34.651   51.233   32.689
H   35.020   49.521   32.635
H   31.564   54.847   26.653
H   30.212   54.577   25.519
H   31.462   55.769   25.141
H   31.326   56.028   22.978
H   29.683   55.335   22.682
H   30.598   55.920   21.387
H   34.709   50.077   20.399
H   34.614   47.196   20.911
H   32.113   48.524   20.492
H   33.384   48.066   19.317
H   32.601   49.638   19.264
H   36.649   48.928   20.004
H   36.883   47.248   20.498
H   38.265   47.746   22.110
H   37.247   48.853   22.904
H   38.146   49.452   21.478
H   35.669   43.589   25.853
H   37.162   44.563   25.446
H   35.829   44.182   24.264
H   35.561   47.225   30.081
H   32.883   45.288   33.063
H   32.039   45.053   31.648
H   32.058   46.690   32.218
H   31.530   50.992   34.631
H   30.371   51.291   33.322
H   31.751   53.690   33.462
H   28.103   53.011   35.183
H   29.206   52.785   36.499
H   29.190   51.680   35.250
H   28.898   55.330   35.059
H   30.116   55.537   33.775
H   31.340   54.788   36.182
H   30.218   55.992   36.726
H   31.736   57.181   34.374
H   32.810   56.174   35.351
H   31.746   57.671   37.424
H   33.869   58.089   35.509
H   33.909   57.920   37.304
H   33.533   59.488   36.635
H   30.494   58.785   35.073
H   31.564   59.987   35.683
H   29.769   58.599   37.681
H   29.146   59.798   36.589
H   31.620   60.635   37.867
H   30.362   60.199   39.058
H   29.565   61.815   36.729
H   30.365   63.951   38.349
H   31.058   63.461   36.901
H   31.650   62.851   38.447
H   28.871   62.685   39.426
H   28.316   61.080   39.088
H   26.488   61.663   37.825
H   27.515   62.867   36.883
H   26.758   63.494   39.692
H   25.348   63.233   38.755
H   27.527   65.039   37.682
H   25.455   66.827   38.730
H   26.822   66.430   39.745
H   25.429   65.515   40.009
H   26.186   65.661   35.950
H   24.734   65.617   36.988
H   25.547   64.109   36.519

