%nproc=24
%mem=75GB
#p blyp/Def2SVP td=(nstates=5)

step_301_chromophore_7 TDDFT with blyp functional

0 1
Mg   25.975   0.260   29.634
C   27.828   -0.222   32.605
C   23.218   0.392   31.701
C   24.185   0.293   26.859
C   28.872   -0.415   27.841
N   25.608   0.283   31.871
C   26.539   0.172   32.912
C   25.970   0.237   34.286
C   24.478   -0.010   33.941
C   24.409   0.220   32.426
C   23.982   -1.420   34.334
C   26.437   1.444   35.052
C   26.890   1.132   36.486
C   26.856   2.218   37.557
O   27.000   3.381   37.371
O   26.807   1.579   38.786
N   24.014   0.327   29.329
C   23.037   0.447   30.288
C   21.727   0.635   29.676
C   21.972   0.415   28.310
C   23.422   0.360   28.061
C   20.441   0.761   30.457
C   20.961   0.206   27.141
O   21.264   0.103   25.971
C   19.507   0.431   27.454
N   26.481   -0.040   27.634
C   25.538   0.202   26.634
C   26.183   0.112   25.307
C   27.749   -0.092   25.592
C   27.757   -0.080   27.122
C   25.594   -0.942   24.393
C   28.708   0.941   24.973
C   29.938   0.372   24.219
N   27.984   -0.309   30.060
C   29.002   -0.570   29.245
C   30.136   -0.990   29.995
C   29.775   -0.764   31.328
C   28.432   -0.346   31.348
C   31.497   -1.364   29.429
C   30.230   -0.841   32.648
O   31.388   -1.097   33.064
C   29.037   -0.427   33.592
C   28.903   -1.463   34.635
O   28.373   -2.559   34.517
O   29.545   -1.089   35.790
C   29.747   -2.130   36.827
C   27.166   2.372   39.958
C   26.516   1.994   41.352
C   25.226   1.613   41.636
C   24.177   1.126   40.651
C   24.677   1.518   43.088
C   24.500   2.850   43.821
C   23.027   2.911   44.291
C   22.759   2.349   45.782
C   21.921   1.052   45.762
C   21.956   3.438   46.539
C   22.903   4.277   47.409
C   23.038   5.755   46.890
C   22.387   6.857   47.818
C   21.062   7.363   47.293
C   23.556   7.929   48.058
C   23.926   8.682   46.689
C   24.215   10.175   47.066
C   22.957   11.135   47.165
C   23.046   12.313   46.186
C   22.774   11.594   48.642
H   22.345   0.499   32.348
H   23.713   0.369   25.877
H   29.811   -0.490   27.288
H   26.457   -0.636   34.720
H   23.906   0.713   34.522
H   23.650   -1.217   35.352
H   24.657   -2.276   34.352
H   23.137   -1.652   33.686
H   25.590   2.112   35.208
H   27.291   1.850   34.511
H   27.915   0.762   36.488
H   26.353   0.287   36.918
H   19.985   1.737   30.293
H   20.636   0.420   31.474
H   19.787   -0.034   30.099
H   19.328   1.389   27.941
H   19.140   -0.346   28.125
H   18.983   0.252   26.515
H   25.921   1.089   24.900
H   28.184   -1.076   25.415
H   26.303   -1.261   23.629
H   24.850   -0.409   23.801
H   25.251   -1.823   24.935
H   29.042   1.556   25.809
H   28.113   1.610   24.352
H   30.123   0.997   23.345
H   29.755   -0.663   23.931
H   30.807   0.437   24.874
H   31.568   -2.238   28.782
H   32.199   -1.526   30.247
H   31.929   -0.513   28.903
H   29.336   0.504   34.072
H   30.572   -2.049   37.535
H   29.920   -3.121   36.408
H   28.915   -2.336   37.501
H   26.869   3.414   39.835
H   28.218   2.120   40.096
H   27.261   2.047   42.146
H   23.969   0.067   40.799
H   24.434   1.347   39.614
H   23.269   1.690   40.861
H   25.311   0.884   43.707
H   23.712   1.011   43.081
H   24.848   3.637   43.152
H   25.151   2.885   44.695
H   22.263   2.579   43.589
H   22.816   3.980   44.295
H   23.712   2.202   46.291
H   21.979   0.527   46.715
H   22.204   0.324   45.001
H   20.931   1.358   45.426
H   21.317   2.911   47.247
H   21.354   3.925   45.772
H   23.835   3.762   47.641
H   22.536   4.240   48.435
H   22.624   5.803   45.883
H   24.110   5.818   46.705
H   22.136   6.421   48.785
H   20.795   6.976   46.310
H   21.137   8.448   47.214
H   20.283   7.124   48.017
H   24.469   7.526   48.496
H   23.215   8.663   48.789
H   23.053   8.539   46.052
H   24.877   8.319   46.298
H   24.884   10.560   46.297
H   24.819   10.215   47.972
H   22.109   10.487   46.944
H   22.932   13.307   46.619
H   22.218   12.179   45.490
H   23.997   12.305   45.653
H   23.507   11.332   49.404
H   21.860   11.148   49.036
H   22.565   12.663   48.602

