%nproc=24
%mem=75GB
#p blyp/Def2SVP td=(nstates=5)

step_1501_chromophore_21 TDDFT with blyp functional

0 1
Mg   15.896   52.959   25.079
C   17.311   51.729   28.046
C   13.103   53.830   26.969
C   14.445   53.984   22.258
C   18.546   51.721   23.227
N   15.444   52.955   27.234
C   16.135   52.482   28.262
C   15.525   52.799   29.599
C   14.110   53.220   29.179
C   14.174   53.247   27.682
C   12.879   52.337   29.605
C   16.294   53.848   30.401
C   16.521   53.572   31.942
C   15.727   52.467   32.634
O   16.164   51.305   32.815
O   14.469   52.862   32.989
N   14.081   53.868   24.664
C   13.009   54.110   25.586
C   11.945   54.715   24.826
C   12.327   54.807   23.421
C   13.611   54.177   23.415
C   10.651   55.070   25.524
C   11.592   55.341   22.249
O   12.093   55.416   21.127
C   10.217   55.855   22.367
N   16.436   52.883   23.032
C   15.695   53.451   22.006
C   16.482   53.340   20.613
C   17.835   52.877   21.058
C   17.607   52.418   22.458
C   15.772   52.454   19.481
C   19.007   53.951   20.973
C   20.130   53.702   19.891
N   17.463   51.740   25.450
C   18.478   51.356   24.655
C   19.358   50.425   25.406
C   18.954   50.575   26.777
C   17.822   51.377   26.699
C   20.624   49.753   24.818
C   19.235   50.255   28.150
O   20.163   49.568   28.607
C   18.280   51.041   29.051
C   17.553   50.188   30.029
O   16.491   49.564   29.870
O   18.503   49.777   30.930
C   18.347   48.720   31.890
C   13.472   51.870   33.535
C   12.178   52.683   33.825
C   11.106   52.348   34.603
C   10.965   50.922   35.236
C   10.000   53.337   35.037
C   10.343   54.783   35.256
C   9.560   55.399   36.514
C   8.303   56.324   36.097
C   8.814   57.766   35.775
C   7.249   56.349   37.286
C   5.791   56.105   36.893
C   4.805   56.301   38.054
C   3.525   57.088   37.638
C   3.918   58.563   37.358
C   2.520   57.088   38.745
C   1.195   56.209   38.382
C   0.123   57.104   37.755
C   -1.050   57.462   38.717
C   -2.324   56.511   38.603
C   -1.465   58.996   38.713
H   12.304   54.139   27.646
H   14.030   54.302   21.299
H   19.326   51.324   22.574
H   15.373   51.845   30.105
H   13.897   54.231   29.528
H   12.660   51.736   28.723
H   12.049   52.860   30.081
H   13.218   51.639   30.370
H   15.861   54.840   30.277
H   17.252   53.838   29.881
H   16.219   54.525   32.377
H   17.577   53.375   32.128
H   9.881   54.757   24.819
H   10.602   56.111   25.844
H   10.595   54.414   26.392
H   10.081   56.572   23.177
H   9.433   55.097   22.384
H   10.141   56.421   21.439
H   16.726   54.263   20.086
H   18.036   52.073   20.350
H   16.410   51.882   18.808
H   15.186   53.102   18.830
H   15.074   51.756   19.942
H   19.540   54.076   21.915
H   18.576   54.945   20.845
H   21.098   53.862   20.364
H   20.003   54.363   19.034
H   20.019   52.642   19.662
H   21.340   50.574   24.822
H   20.406   49.487   23.783
H   20.899   48.902   25.441
H   18.914   51.738   29.598
H   19.016   47.896   31.641
H   17.361   48.255   31.870
H   18.458   49.154   32.884
H   13.871   51.397   34.432
H   13.169   51.086   32.841
H   12.327   53.695   33.447
H   11.022   51.043   36.317
H   11.780   50.311   34.848
H   10.007   50.552   34.870
H   9.290   53.018   35.801
H   9.502   53.320   34.067
H   10.098   55.384   34.380
H   11.400   54.859   35.510
H   10.192   56.107   37.051
H   9.240   54.588   37.169
H   7.765   56.011   35.202
H   8.232   58.248   34.990
H   9.857   57.710   35.463
H   8.732   58.453   36.618
H   7.284   57.299   37.820
H   7.549   55.545   37.958
H   5.659   55.126   36.432
H   5.630   56.819   36.086
H   5.269   56.737   38.938
H   4.645   55.298   38.452
H   3.298   56.676   36.654
H   3.996   59.114   38.294
H   3.117   58.893   36.696
H   4.764   58.630   36.674
H   2.357   58.080   39.166
H   3.019   56.571   39.564
H   0.783   55.747   39.279
H   1.270   55.369   37.691
H   -0.258   56.516   36.920
H   0.506   58.026   37.318
H   -0.735   57.336   39.753
H   -1.950   55.572   38.194
H   -3.042   56.985   37.934
H   -2.731   56.334   39.598
H   -1.476   59.473   39.693
H   -2.421   59.131   38.209
H   -0.788   59.623   38.133

