%nproc=24
%mem=75GB
#p cam-b3lyp/Def2SVP td=(nstates=5)

step_1051_chromophore_16 TDDFT with cam-b3lyp functional

0 1
Mg   41.107   41.411   27.213
C   40.237   43.635   29.832
C   42.036   39.237   29.579
C   42.416   39.772   24.810
C   40.363   44.132   24.927
N   41.098   41.436   29.444
C   40.702   42.436   30.312
C   40.858   42.071   31.800
C   41.437   40.616   31.705
C   41.516   40.369   30.162
C   42.654   40.188   32.625
C   39.501   42.173   32.555
C   39.125   41.174   33.750
C   38.540   41.931   34.907
O   37.358   41.914   35.245
O   39.458   42.733   35.467
N   42.081   39.630   27.172
C   42.245   38.835   28.240
C   42.954   37.706   27.759
C   43.056   37.869   26.338
C   42.539   39.176   26.061
C   43.368   36.577   28.616
C   43.475   36.868   25.252
O   43.408   37.149   24.017
C   44.126   35.501   25.608
N   41.079   41.813   25.182
C   41.799   40.944   24.386
C   41.819   41.434   22.866
C   40.839   42.648   22.887
C   40.726   42.919   24.368
C   43.183   41.822   22.313
C   39.451   42.377   22.208
C   38.667   41.134   22.723
N   40.354   43.424   27.280
C   40.191   44.386   26.316
C   39.736   45.589   26.926
C   39.739   45.311   28.305
C   40.206   44.022   28.491
C   39.568   46.929   26.277
C   39.503   46.002   29.505
O   39.198   47.154   29.823
C   39.768   44.899   30.535
C   40.618   45.490   31.602
O   41.828   45.476   31.586
O   39.894   46.160   32.584
C   40.708   46.754   33.656
C   38.946   43.608   36.564
C   39.237   42.814   37.830
C   39.275   43.379   39.055
C   38.956   44.894   39.328
C   39.523   42.559   40.378
C   38.436   41.531   40.714
C   38.948   40.045   40.884
C   39.193   39.790   42.363
C   40.570   39.240   42.620
C   38.066   38.996   43.065
C   38.213   38.875   44.663
C   36.896   38.998   45.321
C   36.603   38.163   46.550
C   37.648   38.511   47.646
C   36.629   36.688   46.144
C   35.495   35.840   46.819
C   34.576   35.199   45.745
C   33.769   36.253   44.979
C   33.347   35.662   43.577
C   32.565   36.693   45.816
H   42.408   38.445   30.232
H   43.022   39.212   24.095
H   40.302   44.967   24.226
H   41.562   42.734   32.303
H   40.713   39.862   32.012
H   43.534   39.873   32.065
H   42.421   39.346   33.278
H   42.926   41.045   33.241
H   38.680   42.016   31.856
H   39.524   43.162   33.014
H   40.045   40.679   34.058
H   38.376   40.503   33.330
H   43.276   35.636   28.074
H   42.938   36.477   29.612
H   44.430   36.759   28.782
H   43.398   34.921   26.176
H   45.015   35.630   26.225
H   44.410   34.984   24.692
H   41.422   40.712   22.152
H   41.299   43.525   22.431
H   43.175   41.590   21.248
H   43.996   41.269   22.783
H   43.332   42.876   22.547
H   39.557   42.403   21.124
H   38.862   43.268   22.430
H   37.941   41.475   23.461
H   39.335   40.421   23.207
H   38.269   40.651   21.830
H   39.818   46.847   25.220
H   40.135   47.723   26.764
H   38.513   47.199   26.318
H   38.862   44.628   31.077
H   40.460   46.280   34.606
H   40.523   47.826   33.718
H   41.762   46.485   33.586
H   37.879   43.820   36.500
H   39.524   44.532   36.582
H   39.231   41.724   37.828
H   39.556   45.224   40.176
H   37.885   44.888   39.530
H   39.209   45.538   38.486
H   39.583   43.290   41.184
H   40.498   42.080   40.290
H   37.656   41.549   39.952
H   37.982   41.957   41.609
H   39.879   39.938   40.326
H   38.261   39.338   40.418
H   39.146   40.706   42.953
H   40.439   38.400   43.301
H   41.264   39.964   43.047
H   41.154   38.861   41.782
H   38.291   37.970   42.776
H   37.059   39.297   42.778
H   38.861   39.719   44.897
H   38.595   37.891   44.935
H   36.079   38.842   44.617
H   36.681   40.052   45.498
H   35.608   38.425   46.911
H   38.539   39.020   47.278
H   37.953   37.606   48.171
H   37.245   39.196   48.393
H   37.586   36.242   46.413
H   36.625   36.662   45.054
H   34.916   36.288   47.627
H   36.012   35.017   47.312
H   33.925   34.516   46.292
H   35.148   34.482   45.157
H   34.278   37.217   44.971
H   33.860   34.700   43.570
H   33.745   36.243   42.745
H   32.297   35.407   43.430
H   31.616   36.700   45.281
H   32.826   37.707   46.120
H   32.379   36.072   46.693

