%nproc=24
%mem=75GB
#p wB97XD/Def2SVP td=(nstates=5)

step_801_chromophore_9 TDDFT with wB97XD functional

0 1
Mg   35.957   1.378   29.603
C   33.793   2.115   32.222
C   38.586   1.307   31.828
C   38.065   0.732   27.104
C   33.369   1.992   27.474
N   36.126   1.545   31.835
C   35.082   1.846   32.705
C   35.617   2.031   34.053
C   37.158   2.070   33.858
C   37.340   1.641   32.399
C   37.845   3.350   34.213
C   35.099   0.920   35.050
C   34.823   1.355   36.507
C   35.570   2.422   37.251
O   35.398   3.637   37.127
O   36.713   1.937   37.886
N   38.038   0.927   29.478
C   38.893   0.871   30.554
C   40.251   0.370   30.066
C   40.129   0.300   28.630
C   38.692   0.598   28.359
C   41.443   0.204   31.005
C   41.257   -0.056   27.606
O   41.120   0.004   26.409
C   42.620   -0.507   28.203
N   35.703   1.195   27.618
C   36.719   1.005   26.748
C   36.253   0.942   25.274
C   34.725   1.203   25.422
C   34.570   1.482   26.972
C   36.979   1.907   24.274
C   33.887   0.063   24.817
C   33.171   -0.974   25.699
N   34.007   2.001   29.752
C   33.052   2.206   28.780
C   31.732   2.481   29.348
C   32.031   2.497   30.725
C   33.355   2.228   30.887
C   30.529   2.630   28.642
C   31.453   2.732   32.034
O   30.310   3.118   32.260
C   32.551   2.508   33.040
C   32.722   3.703   33.933
O   33.073   4.765   33.520
O   32.230   3.432   35.208
C   32.172   4.605   36.092
C   37.541   2.971   38.573
C   38.672   2.330   39.387
C   38.638   2.004   40.769
C   37.373   2.189   41.562
C   39.904   1.695   41.628
C   40.295   0.229   41.620
C   40.962   -0.203   42.925
C   42.218   -1.024   42.835
C   42.117   -2.434   43.492
C   43.464   -0.297   43.418
C   43.966   0.772   42.487
C   44.211   2.140   43.213
C   45.659   2.728   43.088
C   46.662   2.000   44.086
C   45.729   4.277   43.375
C   45.922   5.139   42.047
C   44.876   6.272   41.962
C   45.451   7.663   42.319
C   44.538   8.587   43.124
C   45.999   8.433   41.069
H   39.357   1.240   32.598
H   38.848   0.563   26.361
H   32.541   2.124   26.774
H   35.166   2.926   34.482
H   37.587   1.335   34.539
H   38.576   3.215   35.010
H   37.261   4.145   34.675
H   38.338   3.736   33.321
H   35.715   0.022   35.003
H   34.108   0.628   34.704
H   34.952   0.414   37.042
H   33.811   1.759   36.495
H   42.121   0.911   30.528
H   41.881   -0.791   30.927
H   41.137   0.614   31.968
H   43.120   0.380   28.592
H   43.255   -0.926   27.423
H   42.546   -1.235   29.011
H   36.323   -0.084   24.914
H   34.431   2.135   24.940
H   37.925   2.295   24.651
H   36.457   2.846   24.092
H   37.211   1.296   23.402
H   34.524   -0.423   24.079
H   33.051   0.626   24.400
H   32.121   -0.830   25.443
H   33.411   -0.881   26.758
H   33.328   -2.035   25.509
H   30.392   1.843   27.900
H   30.418   3.535   28.044
H   29.795   2.546   29.443
H   32.226   1.778   33.781
H   31.188   4.659   36.558
H   32.333   5.527   35.533
H   32.971   4.553   36.831
H   37.008   3.649   39.239
H   38.000   3.646   37.850
H   39.633   2.210   38.888
H   37.196   1.220   42.028
H   36.486   2.451   40.984
H   37.538   2.945   42.330
H   39.750   2.168   42.598
H   40.749   2.245   41.216
H   41.084   0.082   40.882
H   39.408   -0.334   41.331
H   40.211   -0.731   43.512
H   41.294   0.678   43.475
H   42.406   -1.214   41.778
H   42.084   -3.233   42.752
H   41.230   -2.494   44.124
H   43.008   -2.674   44.072
H   44.325   -0.887   43.734
H   43.186   0.081   44.402
H   43.351   0.984   41.612
H   44.858   0.405   41.979
H   43.936   2.071   44.265
H   43.652   2.895   42.660
H   46.052   2.475   42.103
H   47.525   1.650   43.521
H   46.141   1.335   44.775
H   47.120   2.718   44.766
H   46.643   4.548   43.905
H   44.815   4.505   43.922
H   45.677   4.443   41.246
H   46.925   5.537   41.895
H   43.964   5.970   42.477
H   44.484   6.239   40.946
H   46.310   7.508   42.972
H   43.669   8.026   43.467
H   44.086   9.425   42.594
H   45.112   8.859   44.010
H   46.880   8.921   41.485
H   45.258   9.045   40.555
H   46.360   7.657   40.394

