%nproc=24
%mem=75GB
#p wB97XD/Def2SVP td=(nstates=5)

step_551_chromophore_3 TDDFT with wB97XD functional

0 1
Mg   1.839   7.620   27.211
C   1.768   9.840   30.015
C   2.885   5.266   29.409
C   1.961   5.607   24.588
C   1.768   10.437   25.060
N   2.120   7.547   29.481
C   1.923   8.495   30.405
C   2.016   7.952   31.847
C   2.729   6.545   31.590
C   2.552   6.487   30.025
C   4.188   6.386   32.060
C   0.632   7.878   32.499
C   0.657   8.043   34.061
C   1.866   7.371   34.715
O   2.940   7.854   34.968
O   1.423   6.121   35.114
N   2.266   5.676   27.055
C   2.655   4.785   28.061
C   2.879   3.444   27.549
C   2.550   3.568   26.178
C   2.202   5.033   25.882
C   3.263   2.245   28.417
C   2.502   2.458   25.156
O   2.184   2.669   24.009
C   2.791   1.020   25.568
N   1.827   8.012   25.137
C   1.903   6.995   24.253
C   1.698   7.547   22.780
C   1.404   9.048   23.021
C   1.712   9.156   24.477
C   2.953   7.251   21.894
C   0.079   9.648   22.527
C   0.268   10.578   21.290
N   1.716   9.737   27.443
C   1.771   10.710   26.505
C   1.897   11.943   27.153
C   1.843   11.670   28.518
C   1.704   10.298   28.626
C   2.075   13.286   26.577
C   1.933   12.268   29.805
O   2.010   13.462   30.127
C   1.727   11.072   30.854
C   2.821   11.302   31.800
O   3.988   11.498   31.471
O   2.379   11.321   33.031
C   3.460   11.408   34.060
C   2.381   5.224   35.811
C   1.623   4.312   36.822
C   1.889   4.110   38.157
C   2.918   4.834   38.949
C   1.055   2.986   38.776
C   1.006   1.664   38.042
C   1.053   0.506   39.037
C   2.018   -0.700   38.708
C   3.436   -0.240   38.530
C   1.975   -1.824   39.838
C   2.307   -3.268   39.334
C   3.280   -3.999   40.333
C   4.817   -3.823   40.011
C   5.536   -5.093   39.539
C   5.474   -3.061   41.090
C   6.434   -1.920   40.507
C   7.567   -1.466   41.559
C   9.022   -1.461   40.996
C   9.945   -1.094   42.139
C   9.176   -0.374   39.877
H   3.307   4.538   30.105
H   1.883   4.907   23.753
H   1.712   11.259   24.344
H   2.717   8.503   32.474
H   2.056   5.793   32.003
H   4.400   5.396   32.464
H   4.342   7.087   32.880
H   4.944   6.638   31.316
H   0.102   6.988   32.161
H   0.005   8.715   32.191
H   -0.321   7.710   34.407
H   0.905   9.077   34.301
H   2.614   1.374   28.321
H   3.180   2.512   29.471
H   4.296   1.947   28.239
H   2.025   0.766   26.301
H   3.827   1.045   25.905
H   2.697   0.355   24.710
H   0.882   6.995   22.314
H   2.225   9.605   22.569
H   3.749   6.968   22.584
H   3.222   8.045   21.197
H   2.705   6.322   21.381
H   -0.426   10.134   23.362
H   -0.465   8.823   22.066
H   0.126   10.027   20.360
H   1.239   11.039   21.113
H   -0.421   11.398   21.492
H   1.171   13.890   26.512
H   2.499   13.193   25.577
H   2.818   13.779   27.204
H   0.771   11.204   31.361
H   4.503   11.589   33.801
H   3.484   10.523   34.695
H   3.256   12.263   34.705
H   3.146   5.752   36.381
H   2.815   4.638   35.000
H   0.809   3.748   36.366
H   3.316   5.721   38.457
H   3.815   4.234   39.103
H   2.547   5.196   39.907
H   0.043   3.330   38.987
H   1.544   2.879   39.745
H   1.783   1.621   37.279
H   0.013   1.742   37.599
H   0.041   0.099   39.052
H   1.299   0.773   40.064
H   1.686   -1.100   37.750
H   4.010   -1.156   38.392
H   3.922   0.317   39.332
H   3.493   0.418   37.663
H   0.960   -1.951   40.214
H   2.615   -1.463   40.642
H   2.650   -3.314   38.300
H   1.422   -3.879   39.512
H   2.988   -5.049   40.304
H   3.108   -3.685   41.363
H   4.861   -3.242   39.090
H   5.876   -5.136   38.505
H   4.893   -5.965   39.659
H   6.416   -5.450   40.075
H   6.002   -3.769   41.728
H   4.805   -2.562   41.791
H   5.830   -1.024   40.367
H   6.903   -2.363   39.629
H   7.617   -2.042   42.483
H   7.343   -0.405   41.677
H   9.396   -2.361   40.507
H   10.065   -2.042   42.662
H   9.525   -0.261   42.704
H   10.940   -0.799   41.806
H   9.898   0.386   40.172
H   8.255   0.141   39.604
H   9.574   -0.751   38.935

