%nproc=24
%mem=75GB
#p cam-b3lyp/Def2SVP td=(nstates=5)

step_1801_chromophore_9 TDDFT with cam-b3lyp functional

0 1
Mg   36.484   0.417   29.643
C   34.267   1.605   32.017
C   38.893   0.438   32.056
C   38.748   0.004   27.154
C   34.009   1.117   27.155
N   36.507   0.942   31.772
C   35.517   1.410   32.570
C   35.933   1.493   34.014
C   37.507   1.383   33.908
C   37.668   0.899   32.475
C   38.325   2.704   34.081
C   35.209   0.435   34.856
C   35.618   0.254   36.372
C   36.414   1.396   37.093
O   36.556   2.528   36.627
O   36.895   0.908   38.299
N   38.486   0.143   29.630
C   39.314   0.151   30.754
C   40.620   -0.104   30.323
C   40.652   -0.353   28.933
C   39.262   -0.075   28.480
C   41.707   -0.245   31.333
C   41.823   -0.670   27.942
O   41.635   -0.798   26.697
C   43.262   -0.748   28.457
N   36.364   0.452   27.510
C   37.452   0.213   26.759
C   37.080   0.190   25.215
C   35.629   0.474   25.236
C   35.311   0.710   26.710
C   37.938   1.060   24.228
C   34.625   -0.564   24.521
C   34.168   -1.779   25.380
N   34.479   1.071   29.603
C   33.655   1.371   28.518
C   32.398   1.917   29.013
C   32.584   2.016   30.413
C   33.839   1.464   30.692
C   31.341   2.385   28.120
C   32.040   2.507   31.574
O   31.005   3.100   31.780
C   33.040   2.210   32.705
C   33.259   3.435   33.482
O   33.966   4.395   33.169
O   32.733   3.319   34.762
C   32.899   4.539   35.600
C   37.619   1.915   39.125
C   38.374   1.043   40.087
C   39.113   1.462   41.153
C   39.341   2.927   41.589
C   39.699   0.413   42.026
C   40.867   -0.446   41.535
C   41.910   -0.602   42.708
C   43.181   0.321   42.496
C   44.437   -0.559   42.465
C   43.272   1.429   43.598
C   43.488   2.824   42.969
C   44.516   3.722   43.682
C   45.498   4.420   42.804
C   46.787   3.618   42.498
C   45.775   5.940   43.226
C   45.249   6.928   42.281
C   45.680   8.361   42.613
C   44.459   9.359   42.620
C   43.469   9.122   43.837
C   43.775   9.385   41.224
H   39.648   0.471   32.844
H   39.361   -0.275   26.295
H   33.270   1.311   26.375
H   35.770   2.514   34.358
H   37.996   0.701   34.604
H   37.728   3.608   34.206
H   38.987   2.844   33.226
H   39.103   2.583   34.835
H   35.509   -0.469   34.326
H   34.124   0.531   34.878
H   36.327   -0.556   36.198
H   34.895   -0.180   37.063
H   42.235   0.674   31.587
H   42.444   -0.938   30.926
H   41.402   -0.820   32.207
H   43.461   0.035   29.188
H   43.888   -0.634   27.571
H   43.451   -1.727   28.897
H   37.192   -0.826   24.838
H   35.384   1.374   24.671
H   38.857   1.377   24.719
H   37.340   1.913   23.906
H   38.211   0.372   23.428
H   34.939   -1.005   23.576
H   33.716   0.010   24.338
H   34.275   -2.711   24.826
H   33.114   -1.700   25.646
H   34.887   -1.857   26.196
H   31.146   1.630   27.359
H   31.726   3.237   27.559
H   30.356   2.559   28.555
H   32.625   1.459   33.377
H   32.385   5.385   35.142
H   33.971   4.733   35.627
H   32.510   4.326   36.596
H   36.934   2.627   39.586
H   38.364   2.425   38.515
H   38.193   -0.030   40.025
H   40.238   3.356   41.143
H   39.367   3.098   42.665
H   38.474   3.479   41.224
H   38.900   -0.214   42.423
H   40.056   0.977   42.888
H   41.348   0.018   40.674
H   40.478   -1.453   41.382
H   42.203   -1.651   42.662
H   41.565   -0.521   43.739
H   43.131   0.791   41.514
H   44.280   -1.519   42.956
H   45.255   -0.009   42.931
H   44.754   -0.741   41.438
H   44.105   1.215   44.268
H   42.330   1.557   44.133
H   42.502   3.286   43.028
H   43.817   2.702   41.937
H   45.049   3.205   44.480
H   43.907   4.404   44.276
H   44.936   4.541   41.878
H   46.849   2.568   42.786
H   47.669   4.021   42.997
H   47.076   3.686   41.449
H   46.856   6.076   43.236
H   45.343   6.034   44.222
H   44.185   6.866   42.051
H   45.749   6.824   41.318
H   46.397   8.730   41.880
H   46.267   8.381   43.531
H   44.951   10.325   42.729
H   42.472   8.790   43.548
H   43.327   10.051   44.389
H   43.783   8.336   44.524
H   42.740   9.104   41.418
H   44.207   8.673   40.521
H   43.821   10.366   40.750

