%nproc=24
%mem=75GB
#p cam-b3lyp/Def2SVP td=(nstates=5)

step_351_chromophore_17 TDDFT with cam-b3lyp functional

0 1
Mg   29.876   60.054   41.476
C   26.890   58.851   39.975
C   31.531   57.240   40.227
C   32.941   61.479   42.113
C   28.196   63.068   42.127
N   29.305   58.341   40.078
C   28.013   57.954   39.823
C   28.015   56.499   39.229
C   29.474   55.980   39.479
C   30.199   57.277   39.926
C   29.559   54.708   40.446
C   27.472   56.401   37.787
C   26.878   55.010   37.447
C   27.171   54.648   36.013
O   27.664   53.568   35.713
O   26.729   55.643   35.086
N   31.980   59.422   41.256
C   32.379   58.249   40.723
C   33.855   58.177   40.626
C   34.331   59.434   41.255
C   33.053   60.205   41.576
C   34.704   56.997   39.969
C   35.784   59.869   41.394
O   36.632   59.050   41.162
C   36.164   61.056   41.996
N   30.474   62.052   42.029
C   31.801   62.308   42.414
C   31.791   63.671   43.153
C   30.391   64.275   42.906
C   29.582   63.064   42.367
C   32.288   63.477   44.684
C   30.251   65.544   42.054
C   29.088   66.457   42.584
N   27.958   60.782   41.314
C   27.396   62.012   41.627
C   26.076   61.941   41.409
C   25.743   60.691   40.826
C   26.917   60.053   40.722
C   24.976   63.036   41.655
C   24.736   59.891   40.301
O   23.511   60.096   40.228
C   25.451   58.596   39.735
C   24.994   57.354   40.404
O   24.754   57.236   41.633
O   24.736   56.321   39.498
C   24.074   55.171   40.009
C   26.680   55.352   33.635
C   27.890   55.946   32.892
C   28.188   55.827   31.554
C   27.310   55.094   30.516
C   29.333   56.506   30.968
C   30.462   55.559   30.593
C   31.802   55.744   31.366
C   32.974   55.971   30.380
C   32.664   57.162   29.424
C   34.258   56.265   31.233
C   35.041   54.950   31.455
C   36.578   55.007   31.097
C   36.799   54.786   29.597
C   37.407   53.338   29.362
C   37.609   55.868   28.846
C   36.799   56.881   27.942
C   37.341   56.917   26.542
C   37.340   58.276   25.802
C   36.109   58.436   24.857
C   38.636   58.465   24.994
H   32.012   56.312   39.911
H   33.829   62.033   42.424
H   27.797   64.058   42.360
H   27.297   55.936   39.824
H   29.937   55.618   38.561
H   30.322   54.011   40.101
H   28.604   54.182   40.464
H   29.773   55.061   41.455
H   28.304   56.521   37.094
H   26.756   57.168   37.490
H   25.795   55.063   37.555
H   27.338   54.364   38.195
H   35.760   57.187   39.778
H   34.233   56.816   39.003
H   34.736   56.103   40.592
H   35.648   61.883   41.508
H   37.243   61.213   42.005
H   35.947   60.967   43.060
H   32.489   64.288   42.587
H   30.110   64.429   43.948
H   33.059   64.218   44.891
H   32.640   62.451   44.795
H   31.460   63.553   45.389
H   30.035   65.290   41.017
H   31.147   66.144   42.217
H   28.368   66.537   41.770
H   29.425   67.439   42.915
H   28.571   65.902   43.367
H   25.034   63.691   40.786
H   25.204   63.642   42.532
H   23.983   62.591   41.700
H   25.156   58.614   38.686
H   23.141   55.422   40.514
H   24.840   54.706   40.630
H   23.985   54.442   39.205
H   25.852   55.900   33.185
H   26.487   54.310   33.377
H   28.512   56.586   33.517
H   26.760   55.729   29.822
H   26.657   54.337   30.952
H   27.978   54.616   29.799
H   29.606   57.259   31.707
H   29.068   57.034   30.051
H   30.626   55.650   29.519
H   30.107   54.536   30.721
H   31.956   54.887   32.021
H   31.772   56.558   32.091
H   33.138   55.044   29.831
H   33.437   57.929   29.451
H   31.727   57.698   29.574
H   32.565   56.607   28.491
H   33.988   56.628   32.225
H   34.901   57.052   30.839
H   34.486   54.160   30.949
H   35.177   54.664   32.498
H   37.124   54.380   31.803
H   36.957   56.015   31.264
H   35.845   54.583   29.109
H   37.542   52.781   30.289
H   38.416   53.495   28.982
H   36.871   52.817   28.568
H   38.433   55.425   28.288
H   38.057   56.483   29.627
H   36.844   57.909   28.302
H   35.757   56.567   27.882
H   36.646   56.204   26.097
H   38.306   56.412   26.499
H   37.108   59.115   26.458
H   36.261   58.476   23.778
H   35.913   59.491   25.053
H   35.225   57.880   25.171
H   39.066   59.441   25.220
H   38.455   58.497   23.920
H   39.344   57.659   25.188

