%nproc=24
%mem=75GB
#p cam-b3lyp/Def2SVP td=(nstates=5)

step_1701_chromophore_5 TDDFT with cam-b3lyp functional

0 1
Mg   25.454   -8.079   47.793
C   28.280   -5.883   47.057
C   23.834   -6.480   45.198
C   23.288   -10.551   47.686
C   27.685   -10.010   49.741
N   26.087   -6.436   46.287
C   27.256   -5.726   46.131
C   27.154   -4.835   44.923
C   25.644   -4.972   44.527
C   25.115   -6.090   45.363
C   24.859   -3.631   44.594
C   28.050   -5.122   43.711
C   28.702   -3.869   43.093
C   28.196   -3.381   41.743
O   28.883   -2.987   40.817
O   26.810   -3.467   41.678
N   23.665   -8.313   46.820
C   23.129   -7.488   45.839
C   21.778   -7.931   45.503
C   21.594   -9.083   46.294
C   22.847   -9.382   47.006
C   20.908   -7.286   44.486
C   20.180   -9.851   46.489
O   19.242   -9.544   45.815
C   19.952   -10.899   47.494
N   25.635   -10.110   48.465
C   24.495   -10.917   48.397
C   24.666   -12.072   49.334
C   26.110   -11.967   49.865
C   26.474   -10.610   49.367
C   23.596   -12.226   50.432
C   27.112   -13.153   49.289
C   27.675   -13.974   50.432
N   27.479   -7.934   48.440
C   28.231   -8.776   49.226
C   29.525   -8.389   49.267
C   29.517   -7.158   48.562
C   28.253   -6.940   48.039
C   30.650   -9.118   49.823
C   30.461   -6.121   48.131
O   31.617   -5.873   48.477
C   29.663   -5.250   47.090
C   29.599   -3.781   47.413
O   29.853   -3.308   48.512
O   29.370   -3.138   46.267
C   29.656   -1.657   46.293
C   26.232   -3.105   40.346
C   26.580   -4.203   39.297
C   26.462   -3.998   37.917
C   25.969   -2.700   37.302
C   26.845   -5.182   37.037
C   25.826   -6.348   36.971
C   25.574   -7.063   35.631
C   24.607   -6.181   34.753
C   23.357   -6.993   34.350
C   25.336   -5.630   33.460
C   24.764   -4.307   32.984
C   25.711   -3.559   32.016
C   25.391   -3.782   30.553
C   24.202   -3.027   30.077
C   26.588   -3.369   29.599
C   26.721   -4.266   28.281
C   25.988   -3.666   27.082
C   24.657   -4.565   26.837
C   25.106   -5.692   25.835
C   23.648   -3.547   26.274
H   23.258   -5.977   44.418
H   22.542   -11.339   47.811
H   28.213   -10.659   50.442
H   27.365   -3.828   45.283
H   25.540   -5.390   43.526
H   23.846   -3.774   44.218
H   25.279   -2.889   43.914
H   24.829   -3.244   45.613
H   27.442   -5.567   42.923
H   28.795   -5.904   43.856
H   29.738   -4.173   42.948
H   28.612   -3.024   43.775
H   21.141   -7.484   43.440
H   21.068   -6.211   44.407
H   19.875   -7.512   44.751
H   20.320   -10.619   48.482
H   20.562   -11.716   47.109
H   18.930   -11.266   47.588
H   24.564   -12.906   48.640
H   26.120   -11.954   50.955
H   23.368   -13.292   50.417
H   22.670   -11.680   50.252
H   24.047   -11.851   51.351
H   27.953   -12.689   48.774
H   26.709   -13.739   48.463
H   28.711   -13.758   50.696
H   27.750   -15.049   50.266
H   27.121   -13.833   51.360
H   30.775   -9.960   49.143
H   30.362   -9.695   50.702
H   31.641   -8.669   49.887
H   30.204   -5.327   46.147
H   29.994   -1.225   47.235
H   28.769   -1.131   45.938
H   30.429   -1.482   45.544
H   26.633   -2.117   40.121
H   25.145   -3.037   40.388
H   26.863   -5.162   39.730
H   25.205   -2.899   36.551
H   26.764   -2.222   36.730
H   25.539   -1.980   38.000
H   27.807   -5.595   37.339
H   27.008   -4.698   36.075
H   24.826   -6.141   37.353
H   26.272   -7.196   37.490
H   25.133   -8.023   35.903
H   26.486   -7.347   35.107
H   24.213   -5.340   35.324
H   23.489   -8.058   34.160
H   22.820   -6.533   33.520
H   22.770   -6.993   35.268
H   25.311   -6.435   32.725
H   26.373   -5.399   33.702
H   24.546   -3.598   33.782
H   23.912   -4.474   32.324
H   26.762   -3.694   32.269
H   25.673   -2.478   32.154
H   25.147   -4.833   30.398
H   23.666   -2.426   30.812
H   23.386   -3.645   29.702
H   24.455   -2.466   29.178
H   27.541   -3.412   30.126
H   26.442   -2.327   29.314
H   26.415   -5.291   28.490
H   27.772   -4.334   28.004
H   26.642   -3.642   26.211
H   25.806   -2.615   27.308
H   24.250   -5.131   27.675
H   25.065   -6.698   26.253
H   26.132   -5.528   25.508
H   24.415   -5.724   24.992
H   23.035   -4.106   25.568
H   24.053   -2.609   25.894
H   22.860   -3.256   26.969

