%nproc=24
%mem=75GB
#p cam-b3lyp/Def2SVP td=(nstates=5)

step_451_chromophore_10 TDDFT with cam-b3lyp functional

0 1
Mg   41.103   8.172   29.491
C   42.846   9.559   32.155
C   38.734   7.059   31.881
C   39.687   6.398   27.215
C   43.840   8.886   27.411
N   40.876   8.278   31.740
C   41.686   9.021   32.633
C   41.116   8.997   34.071
C   39.849   8.089   33.952
C   39.837   7.685   32.425
C   40.029   6.811   34.912
C   40.913   10.370   34.785
C   41.587   10.529   36.076
C   40.769   11.165   37.190
O   40.032   12.187   37.124
O   40.993   10.509   38.388
N   39.324   7.096   29.542
C   38.452   6.701   30.539
C   37.287   6.012   29.896
C   37.499   6.003   28.527
C   38.869   6.512   28.402
C   36.069   5.494   30.685
C   36.500   5.713   27.326
O   36.784   5.833   26.133
C   35.069   5.470   27.686
N   41.699   7.692   27.559
C   40.931   6.882   26.835
C   41.575   6.636   25.417
C   42.762   7.704   25.411
C   42.774   8.201   26.881
C   42.139   5.202   25.302
C   42.647   8.757   24.342
C   42.043   10.152   24.776
N   43.027   9.072   29.654
C   43.951   9.300   28.726
C   45.044   10.037   29.384
C   44.651   10.211   30.709
C   43.418   9.543   30.860
C   46.220   10.602   28.594
C   45.094   10.728   32.004
O   46.116   11.312   32.396
C   43.902   10.271   32.944
C   44.414   9.336   34.006
O   44.737   8.184   33.798
O   44.666   10.043   35.143
C   45.361   9.362   36.177
C   40.122   11.067   39.407
C   40.553   10.621   40.817
C   41.697   10.749   41.494
C   42.876   11.559   40.905
C   41.918   10.060   42.839
C   41.069   10.481   44.040
C   39.925   9.524   44.337
C   38.585   10.129   44.811
C   37.756   9.102   45.571
C   37.723   10.735   43.649
C   37.338   12.190   43.896
C   35.799   12.426   43.874
C   35.136   12.213   45.247
C   33.755   11.518   45.028
C   34.984   13.493   46.029
C   34.932   13.223   47.513
C   36.417   13.192   47.988
C   36.733   12.131   49.066
C   36.759   12.680   50.487
C   37.995   11.283   48.783
H   38.065   6.796   32.704
H   39.268   5.674   26.513
H   44.809   8.993   26.921
H   41.957   8.425   34.463
H   38.940   8.584   34.296
H   40.825   6.988   35.636
H   40.180   5.918   34.306
H   39.173   6.545   35.532
H   39.845   10.586   34.794
H   41.232   11.190   34.141
H   42.516   11.077   35.919
H   41.843   9.551   36.483
H   36.391   5.797   31.681
H   35.930   4.417   30.589
H   35.138   6.007   30.443
H   34.892   6.349   28.305
H   34.921   4.539   28.233
H   34.458   5.333   26.794
H   40.813   6.725   24.643
H   43.726   7.199   25.355
H   42.882   5.167   24.505
H   41.342   4.482   25.115
H   42.654   4.842   26.192
H   42.099   8.271   23.534
H   43.664   9.037   24.070
H   41.008   9.950   24.501
H   42.369   11.045   24.243
H   42.114   10.345   25.847
H   45.959   11.314   27.811
H   46.744   9.755   28.152
H   47.022   11.003   29.214
H   43.550   11.124   33.524
H   45.603   8.332   35.916
H   44.784   9.418   37.100
H   46.338   9.786   36.410
H   39.152   10.614   39.203
H   40.045   12.150   39.501
H   39.821   9.970   41.296
H   42.561   12.559   40.606
H   43.195   11.035   40.004
H   43.720   11.490   41.591
H   42.934   10.244   43.186
H   41.899   8.982   42.678
H   40.709   11.501   43.901
H   41.627   10.469   44.977
H   40.315   8.864   45.113
H   39.654   8.913   43.476
H   38.950   10.795   45.592
H   38.111   8.955   46.591
H   37.863   8.244   44.907
H   36.705   9.374   45.667
H   36.845   10.162   43.348
H   38.311   10.693   42.732
H   37.670   12.865   43.107
H   37.766   12.496   44.850
H   35.468   11.716   43.115
H   35.532   13.446   43.597
H   35.809   11.544   45.785
H   33.808   10.945   44.102
H   32.939   12.229   44.898
H   33.587   10.810   45.839
H   34.059   13.983   45.727
H   35.777   14.187   45.749
H   34.519   12.247   47.767
H   34.366   14.044   47.952
H   36.515   14.186   48.427
H   37.103   13.347   47.156
H   35.967   11.361   48.969
H   35.772   12.502   50.913
H   36.923   13.757   50.453
H   37.511   12.253   51.151
H   38.826   11.413   49.475
H   38.396   11.654   47.839
H   37.741   10.223   48.825

