%nproc=24
%mem=75GB
#p wB97XD/Def2SVP td=(nstates=5)

step_251_chromophore_21 TDDFT with wB97XD functional

0 1
Mg   15.776   52.082   25.402
C   17.410   50.698   28.220
C   13.201   52.908   27.421
C   14.254   53.222   22.737
C   18.253   50.461   23.376
N   15.275   51.746   27.602
C   16.225   51.391   28.545
C   15.657   51.733   29.880
C   14.156   51.892   29.636
C   14.160   52.234   28.125
C   13.397   50.537   29.896
C   16.281   53.030   30.629
C   16.585   52.990   32.158
C   15.448   52.471   33.085
O   14.572   51.622   32.905
O   15.501   53.121   34.305
N   13.935   52.945   25.151
C   13.069   53.200   26.087
C   11.877   53.799   25.462
C   12.220   54.113   24.112
C   13.514   53.396   23.930
C   10.480   54.113   26.111
C   11.500   54.937   23.045
O   11.871   55.026   21.859
C   10.193   55.490   23.365
N   16.147   51.696   23.288
C   15.394   52.417   22.365
C   16.066   52.285   20.944
C   17.384   51.528   21.243
C   17.292   51.234   22.742
C   15.132   51.681   19.895
C   18.690   52.216   20.772
C   19.801   51.321   20.175
N   17.474   50.825   25.676
C   18.342   50.209   24.780
C   19.412   49.597   25.526
C   19.055   49.716   26.870
C   17.863   50.488   26.946
C   20.582   49.019   25.009
C   19.465   49.446   28.256
O   20.446   48.904   28.740
C   18.403   50.109   29.193
C   17.857   49.019   30.098
O   16.991   48.184   29.966
O   18.539   49.253   31.257
C   18.039   48.607   32.494
C   14.698   52.635   35.456
C   13.713   53.726   35.836
C   12.870   53.775   36.922
C   12.703   52.533   37.798
C   11.756   54.761   37.002
C   10.586   54.315   35.991
C   9.950   55.449   34.985
C   8.427   55.700   35.313
C   7.600   56.019   34.030
C   8.101   56.714   36.418
C   6.827   56.518   37.185
C   5.680   57.449   36.619
C   5.026   58.277   37.720
C   3.917   57.631   38.479
C   4.647   59.653   37.170
C   5.821   60.655   37.197
C   5.326   61.909   38.005
C   5.558   63.336   37.424
C   6.986   63.607   36.992
C   5.222   64.413   38.525
H   12.400   53.260   28.075
H   13.818   53.792   21.914
H   19.127   50.157   22.797
H   15.773   50.977   30.657
H   13.741   52.773   30.125
H   12.385   50.664   30.279
H   13.848   49.936   30.686
H   13.328   50.064   28.917
H   15.691   53.910   30.375
H   17.231   53.296   30.164
H   16.689   54.049   32.397
H   17.494   52.389   32.184
H   10.248   55.171   26.231
H   10.471   53.631   27.089
H   9.615   53.808   25.522
H   10.237   56.095   24.271
H   9.457   54.696   23.492
H   9.967   56.227   22.595
H   16.385   53.291   20.671
H   17.338   50.511   20.854
H   15.241   50.596   19.904
H   15.367   51.955   18.867
H   14.102   51.793   20.232
H   19.140   52.872   21.517
H   18.481   52.965   20.007
H   20.485   51.158   21.008
H   20.304   51.956   19.445
H   19.373   50.395   19.792
H   21.132   48.283   25.595
H   21.232   49.843   24.713
H   20.262   48.467   24.126
H   18.864   50.909   29.772
H   18.091   49.389   33.251
H   18.616   47.759   32.862
H   16.997   48.315   32.366
H   15.448   52.600   36.247
H   14.362   51.603   35.354
H   13.794   54.583   35.167
H   11.681   52.314   38.109
H   13.267   52.671   38.720
H   13.050   51.653   37.256
H   12.165   55.750   36.798
H   11.448   54.748   38.048
H   9.863   53.778   36.604
H   10.912   53.508   35.335
H   10.154   55.119   33.966
H   10.497   56.385   35.103
H   8.028   54.754   35.679
H   7.326   57.072   33.986
H   6.709   55.395   33.965
H   8.193   55.836   33.134
H   8.130   57.683   35.920
H   8.934   56.816   37.114
H   6.951   56.640   38.261
H   6.411   55.515   37.098
H   4.977   56.738   36.186
H   5.930   58.039   35.737
H   5.774   58.441   38.496
H   4.266   57.538   39.507
H   3.770   56.592   38.185
H   2.983   58.177   38.618
H   3.808   60.059   37.735
H   4.341   59.677   36.124
H   6.129   60.780   36.159
H   6.658   60.112   37.635
H   6.069   61.855   38.802
H   4.380   61.804   38.536
H   4.915   63.565   36.573
H   6.903   63.403   35.925
H   7.589   62.740   37.261
H   7.464   64.545   37.276
H   4.682   63.967   39.360
H   4.557   65.146   38.069
H   5.993   65.078   38.914

