%nproc=24
%mem=75GB
#p PBE1PBE/Def2SVP td=(nstates=5)

step_251_chromophore_15 TDDFT with PBE1PBE functional

0 1
Mg   46.813   34.806   27.837
C   45.176   32.791   30.240
C   46.719   37.249   30.027
C   47.338   36.806   25.257
C   46.111   32.194   25.532
N   46.148   34.851   30.002
C   45.624   33.972   30.776
C   45.624   34.458   32.240
C   45.673   36.063   32.088
C   46.145   36.098   30.575
C   44.318   36.838   32.332
C   46.950   33.949   33.013
C   46.900   33.619   34.540
C   45.843   34.417   35.389
O   44.604   34.272   35.329
O   46.499   35.277   36.237
N   47.211   36.738   27.689
C   47.174   37.592   28.781
C   47.547   38.973   28.312
C   47.766   38.814   26.880
C   47.452   37.442   26.472
C   47.573   40.149   29.270
C   48.244   39.872   25.910
O   48.375   39.701   24.690
C   48.621   41.197   26.437
N   46.836   34.499   25.624
C   47.040   35.533   24.828
C   47.325   35.031   23.343
C   46.874   33.477   23.480
C   46.625   33.369   24.982
C   46.585   35.859   22.241
C   47.867   32.377   22.980
C   47.464   31.597   21.755
N   46.035   32.765   27.861
C   45.834   31.877   26.823
C   45.159   30.738   27.288
C   44.846   31.077   28.618
C   45.349   32.314   28.945
C   44.792   29.550   26.551
C   44.256   30.514   29.770
O   43.770   29.393   30.082
C   44.206   31.727   30.804
C   44.550   31.255   32.169
O   45.614   30.777   32.557
O   43.437   31.564   33.013
C   43.541   31.178   34.426
C   45.797   36.111   37.163
C   46.592   37.237   37.619
C   46.251   38.475   38.034
C   44.767   38.823   38.385
C   47.280   39.650   38.194
C   47.518   40.383   36.837
C   48.746   41.397   36.834
C   48.466   42.943   36.804
C   49.022   43.500   35.495
C   49.082   43.735   37.975
C   48.485   45.059   38.284
C   47.400   45.032   39.362
C   46.160   45.774   38.849
C   46.454   47.304   38.475
C   45.064   45.688   39.995
C   43.702   45.121   39.445
C   42.650   46.242   39.261
C   41.167   45.993   39.637
C   40.319   45.568   38.413
C   40.543   47.326   40.129
H   46.792   37.986   30.830
H   47.574   37.468   24.422
H   45.971   31.366   24.833
H   44.623   34.282   32.633
H   46.323   36.458   32.868
H   43.462   36.164   32.357
H   44.099   37.530   31.519
H   44.434   37.339   33.293
H   47.782   34.634   32.849
H   47.315   33.059   32.500
H   47.849   33.775   35.054
H   46.485   32.614   34.626
H   48.461   40.768   29.137
H   47.517   39.851   30.317
H   46.633   40.695   29.194
H   47.788   41.662   26.965
H   48.942   41.842   25.619
H   49.472   41.209   27.118
H   48.388   35.011   23.103
H   45.868   33.306   23.094
H   45.913   36.585   22.699
H   46.155   35.056   21.642
H   47.356   36.292   21.605
H   47.981   31.654   23.788
H   48.848   32.823   22.815
H   46.586   32.133   21.397
H   47.145   30.607   22.083
H   48.216   31.608   20.967
H   45.697   29.196   26.058
H   44.177   29.708   25.665
H   44.427   28.789   27.241
H   43.196   32.138   30.794
H   42.607   31.380   34.951
H   44.235   31.859   34.919
H   43.730   30.107   34.491
H   45.443   35.557   38.032
H   44.937   36.465   36.594
H   47.661   37.097   37.459
H   44.044   38.037   38.169
H   44.564   39.662   37.719
H   44.779   38.968   39.466
H   48.195   39.237   38.617
H   46.989   40.281   39.034
H   46.623   41.004   36.802
H   47.600   39.807   35.916
H   49.328   41.092   35.964
H   49.404   41.110   37.655
H   47.410   43.125   37.001
H   48.966   44.589   35.490
H   48.568   43.133   34.574
H   50.070   43.204   35.443
H   50.144   43.890   37.786
H   49.197   43.116   38.865
H   47.971   45.467   37.413
H   49.214   45.780   38.653
H   47.708   45.493   40.300
H   47.126   44.001   39.585
H   45.832   45.310   37.919
H   46.716   47.177   37.424
H   47.221   47.736   39.117
H   45.620   48.005   38.446
H   45.003   46.692   40.416
H   45.316   44.991   40.793
H   43.295   44.338   40.085
H   43.898   44.718   38.451
H   42.654   46.725   38.284
H   42.902   47.081   39.910
H   41.143   45.194   40.378
H   39.289   45.920   38.466
H   40.248   44.483   38.336
H   40.795   45.868   37.479
H   39.464   47.181   40.065
H   40.913   48.235   39.655
H   40.880   47.359   41.165

