%nproc=24
%mem=75GB
#p blyp/Def2SVP td=(nstates=5)

step_851_chromophore_26 TDDFT with blyp functional

0 1
Mg   -8.780   18.618   42.727
C   -5.252   18.383   43.094
C   -8.284   22.054   42.273
C   -12.002   18.713   42.087
C   -8.874   15.127   42.386
N   -6.967   20.030   42.445
C   -5.701   19.654   42.747
C   -4.716   20.784   42.450
C   -5.664   22.022   42.530
C   -7.031   21.357   42.432
C   -5.751   22.952   43.871
C   -3.840   20.529   41.191
C   -4.631   20.185   39.914
C   -3.849   20.236   38.546
O   -2.760   20.816   38.402
O   -4.559   19.760   37.489
N   -9.998   20.182   42.164
C   -9.644   21.552   42.128
C   -10.845   22.283   41.812
C   -11.953   21.372   41.806
C   -11.408   20.019   42.009
C   -10.774   23.723   41.484
C   -13.373   21.773   41.590
O   -13.731   22.954   41.402
C   -14.449   20.743   41.633
N   -10.123   17.175   42.073
C   -11.462   17.464   42.170
C   -12.362   16.187   42.205
C   -11.336   15.085   41.835
C   -10.029   15.817   42.087
C   -13.067   15.871   43.639
C   -11.365   14.539   40.393
C   -11.492   13.037   40.137
N   -7.416   17.066   42.994
C   -7.596   15.705   42.743
C   -6.352   15.062   43.079
C   -5.427   16.055   43.303
C   -6.103   17.292   43.137
C   -6.011   13.582   43.091
C   -4.097   16.323   43.524
O   -3.174   15.537   43.629
C   -3.887   17.872   43.498
C   -3.229   18.328   44.734
O   -2.124   18.867   44.821
O   -4.025   18.031   45.853
C   -3.533   18.021   47.255
C   -3.919   19.939   36.188
C   -4.760   19.260   35.209
C   -5.740   19.798   34.546
C   -6.154   21.255   34.533
C   -6.553   19.036   33.528
C   -7.970   18.745   33.990
C   -8.995   18.762   32.937
C   -9.814   20.003   33.024
C   -11.331   19.657   32.904
C   -9.444   21.099   32.056
C   -9.934   22.482   32.482
C   -9.275   23.593   31.646
C   -10.369   24.103   30.583
C   -10.040   25.592   30.106
C   -10.185   23.255   29.271
C   -11.501   23.267   28.486
C   -11.262   23.838   27.035
C   -11.884   22.936   25.860
C   -10.935   23.048   24.666
C   -13.272   23.330   25.536
H   -8.149   23.134   42.178
H   -13.076   18.582   42.236
H   -8.956   14.039   42.397
H   -4.012   20.940   43.267
H   -5.487   22.720   41.712
H   -5.326   23.929   43.642
H   -5.039   22.524   44.577
H   -6.785   23.042   44.203
H   -3.129   19.734   41.416
H   -3.241   21.430   41.060
H   -5.531   20.782   39.764
H   -4.973   19.160   40.057
H   -11.577   23.985   40.795
H   -9.827   24.002   41.022
H   -11.093   24.345   42.320
H   -14.565   20.249   42.597
H   -14.217   19.940   40.933
H   -15.385   21.245   41.388
H   -13.121   16.096   41.428
H   -11.368   14.226   42.504
H   -14.105   15.584   43.468
H   -13.040   16.712   44.331
H   -12.505   15.016   44.015
H   -10.518   14.916   39.819
H   -12.264   14.920   39.910
H   -11.524   12.456   41.058
H   -10.707   12.577   39.535
H   -12.492   12.879   39.734
H   -5.034   13.425   43.548
H   -5.906   13.185   42.081
H   -6.852   13.094   43.585
H   -3.150   18.247   42.788
H   -2.451   17.931   47.351
H   -3.992   17.225   47.841
H   -3.902   18.857   47.849
H   -2.921   19.501   36.237
H   -3.625   20.916   35.806
H   -4.590   18.209   34.975
H   -5.940   21.629   33.532
H   -5.561   21.916   35.164
H   -7.206   21.459   34.732
H   -6.045   18.108   33.263
H   -6.580   19.541   32.563
H   -8.232   19.307   34.885
H   -7.923   17.739   34.408
H   -9.529   17.819   33.053
H   -8.637   18.766   31.907
H   -9.791   20.377   34.048
H   -11.646   18.620   32.791
H   -11.684   20.110   31.977
H   -11.932   19.925   33.773
H   -9.911   20.877   31.096
H   -8.399   21.028   31.753
H   -9.641   22.640   33.520
H   -11.020   22.390   32.470
H   -8.328   23.323   31.179
H   -8.948   24.442   32.247
H   -11.379   24.000   30.979
H   -10.245   25.674   29.039
H   -9.011   25.864   30.341
H   -10.689   26.342   30.557
H   -9.866   22.266   29.600
H   -9.323   23.704   28.777
H   -12.266   23.736   29.106
H   -11.966   22.282   28.521
H   -10.240   24.154   26.822
H   -11.768   24.803   27.046
H   -11.835   21.926   26.268
H   -10.482   22.144   24.258
H   -10.147   23.758   24.918
H   -11.473   23.420   23.793
H   -13.807   23.854   26.329
H   -13.825   22.467   25.165
H   -13.348   23.958   24.648

