%nproc=24
%mem=75GB
#p wB97XD/Def2SVP td=(nstates=5)

step_751_chromophore_11 TDDFT with wB97XD functional

0 1
Mg   53.541   23.724   44.665
C   50.529   25.579   43.919
C   51.800   20.917   43.649
C   56.415   22.232   44.875
C   55.028   26.866   45.289
N   51.418   23.333   43.676
C   50.350   24.195   43.681
C   49.025   23.434   43.657
C   49.509   21.944   43.712
C   51.016   22.046   43.666
C   48.941   21.074   44.838
C   48.188   23.747   42.356
C   48.910   23.900   41.074
C   48.103   23.650   39.740
O   47.285   22.780   39.614
O   48.307   24.614   38.781
N   54.054   21.885   44.067
C   53.220   20.835   43.882
C   53.973   19.601   43.905
C   55.318   19.940   44.202
C   55.284   21.385   44.418
C   53.378   18.252   43.634
C   56.420   19.002   44.523
O   56.210   17.813   44.526
C   57.853   19.410   44.659
N   55.504   24.460   44.710
C   56.534   23.624   45.038
C   57.803   24.406   45.542
C   57.347   25.898   45.322
C   55.809   25.729   45.117
C   58.296   24.065   46.949
C   58.165   26.791   44.305
C   57.482   26.968   42.866
N   52.902   25.821   44.793
C   53.633   26.953   45.007
C   52.766   28.179   45.062
C   51.500   27.603   44.643
C   51.659   26.246   44.426
C   53.180   29.630   45.402
C   50.166   27.913   44.390
O   49.582   29.025   44.458
C   49.467   26.650   43.775
C   49.196   27.158   42.418
O   50.074   27.403   41.630
O   47.868   27.235   42.156
C   47.421   27.526   40.804
C   47.664   24.432   37.473
C   48.664   23.580   36.687
C   48.732   22.253   36.329
C   47.590   21.174   36.718
C   49.800   21.802   35.314
C   50.374   20.367   35.471
C   51.899   20.343   35.032
C   52.443   18.829   34.945
C   53.937   18.642   35.378
C   52.322   18.355   33.503
C   51.868   16.801   33.495
C   52.852   15.928   32.652
C   52.267   14.949   31.699
C   51.937   13.638   32.353
C   53.146   14.639   30.470
C   53.129   15.710   29.371
C   52.841   15.003   27.965
C   54.120   15.016   27.111
C   54.065   16.277   26.089
C   54.475   13.729   26.284
H   51.213   20.021   43.434
H   57.324   21.718   45.196
H   55.539   27.692   45.789
H   48.494   23.843   44.517
H   49.077   21.464   42.834
H   48.529   20.123   44.502
H   48.116   21.583   45.338
H   49.779   21.032   45.533
H   47.830   24.738   42.637
H   47.413   22.981   42.342
H   49.766   23.229   40.997
H   49.317   24.909   41.153
H   53.469   17.653   44.540
H   53.817   17.675   42.821
H   52.293   18.249   43.534
H   58.158   20.115   43.886
H   58.488   18.530   44.558
H   58.053   19.734   45.680
H   58.626   24.102   44.895
H   57.341   26.462   46.255
H   58.998   23.232   46.951
H   57.459   23.821   47.603
H   58.831   24.875   47.443
H   59.196   26.435   44.299
H   58.177   27.851   44.558
H   57.354   25.979   42.425
H   58.138   27.488   42.168
H   56.459   27.316   43.010
H   54.015   29.689   46.100
H   52.264   29.980   45.879
H   53.480   30.201   44.523
H   48.577   26.476   44.380
H   46.821   28.427   40.672
H   46.958   26.618   40.417
H   48.199   27.791   40.088
H   47.893   25.392   37.010
H   46.650   24.051   37.351
H   49.519   24.228   36.494
H   47.208   20.510   35.943
H   46.728   21.724   37.096
H   48.005   20.553   37.512
H   50.581   22.559   35.385
H   49.287   21.780   34.352
H   49.803   19.779   34.753
H   50.190   19.832   36.402
H   52.521   20.848   35.771
H   52.043   21.014   34.185
H   51.819   18.150   35.526
H   53.868   17.921   36.193
H   54.325   19.549   35.843
H   54.569   18.242   34.586
H   53.206   18.583   32.907
H   51.517   18.972   33.104
H   50.957   16.672   32.910
H   51.787   16.409   34.509
H   53.488   15.442   33.392
H   53.462   16.622   32.073
H   51.345   15.312   31.247
H   51.960   13.761   33.435
H   52.748   12.932   32.171
H   50.963   13.189   32.154
H   52.921   13.641   30.092
H   54.135   14.523   30.911
H   54.112   16.166   29.257
H   52.357   16.471   29.486
H   52.023   15.564   27.513
H   52.497   13.971   28.042
H   54.980   15.312   27.711
H   53.345   16.938   26.571
H   53.675   15.988   25.113
H   55.097   16.614   26.000
H   54.463   13.912   25.209
H   53.752   12.959   26.555
H   55.434   13.279   26.538

