%nproc=24
%mem=75GB
#p PBE1PBE/Def2SVP td=(nstates=5)

step_701_chromophore_25 TDDFT with PBE1PBE functional

0 1
Mg   -2.450   33.964   26.929
C   -3.922   32.111   29.675
C   -0.880   35.887   29.392
C   -1.433   35.994   24.528
C   -4.110   31.896   24.738
N   -2.436   33.948   29.363
C   -3.012   33.070   30.182
C   -2.629   33.482   31.641
C   -1.794   34.750   31.499
C   -1.635   34.846   29.945
C   -2.278   36.097   32.235
C   -1.904   32.379   32.513
C   -2.484   32.052   33.890
C   -1.486   32.002   35.046
O   -0.758   31.053   35.297
O   -1.424   33.288   35.598
N   -1.320   35.652   26.920
C   -0.715   36.208   28.012
C   -0.062   37.422   27.550
C   -0.183   37.517   26.173
C   -0.937   36.333   25.806
C   0.577   38.329   28.517
C   0.490   38.573   25.307
O   0.356   38.590   24.090
C   1.212   39.614   25.895
N   -2.663   33.942   24.879
C   -2.139   34.868   24.085
C   -2.346   34.430   22.517
C   -3.032   33.015   22.646
C   -3.313   32.961   24.165
C   -3.228   35.337   21.638
C   -2.131   31.882   22.132
C   -2.408   31.485   20.637
N   -3.649   32.363   27.147
C   -4.333   31.613   26.148
C   -5.054   30.493   26.708
C   -4.923   30.716   28.076
C   -4.088   31.823   28.375
C   -5.899   29.466   26.060
C   -5.386   30.188   29.362
O   -6.140   29.261   29.652
C   -4.674   31.116   30.447
C   -5.698   31.681   31.298
O   -6.518   32.532   30.970
O   -5.650   31.067   32.520
C   -6.666   31.450   33.571
C   -0.437   33.346   36.684
C   -1.088   34.318   37.655
C   -0.530   35.105   38.602
C   0.938   35.098   39.004
C   -1.300   36.016   39.513
C   -1.637   35.346   40.846
C   -1.029   36.163   42.052
C   -2.081   37.020   42.761
C   -1.993   38.477   42.141
C   -1.944   37.241   44.345
C   -1.819   35.895   45.142
C   -0.739   35.970   46.171
C   0.418   34.930   45.977
C   0.218   33.586   46.728
C   1.806   35.626   46.144
C   2.572   35.865   44.779
C   3.124   34.617   44.085
C   4.321   34.939   43.157
C   3.737   35.408   41.795
C   5.263   33.707   42.820
H   -0.374   36.492   30.147
H   -1.071   36.594   23.691
H   -4.409   31.101   24.051
H   -3.556   33.744   32.150
H   -0.764   34.602   31.824
H   -2.712   36.851   31.579
H   -1.472   36.571   32.797
H   -3.097   35.901   32.927
H   -0.882   32.723   32.671
H   -1.861   31.514   31.852
H   -2.893   31.056   33.717
H   -3.378   32.582   34.218
H   1.628   38.047   28.582
H   0.190   38.276   29.534
H   0.491   39.407   28.379
H   1.725   40.142   25.092
H   1.931   39.322   26.661
H   0.492   40.379   26.185
H   -1.318   34.328   22.170
H   -4.056   33.011   22.272
H   -4.154   34.901   21.262
H   -2.685   35.611   20.733
H   -3.502   36.305   22.058
H   -2.193   30.987   22.750
H   -1.120   32.244   22.318
H   -1.500   31.695   20.070
H   -3.212   32.153   20.328
H   -2.668   30.428   20.605
H   -5.312   28.558   25.921
H   -6.387   29.766   25.133
H   -6.696   29.319   26.789
H   -4.091   30.385   31.008
H   -7.500   32.046   33.202
H   -6.287   32.025   34.416
H   -7.045   30.526   34.008
H   0.516   33.828   36.464
H   -0.274   32.404   37.208
H   -2.164   34.419   37.513
H   1.596   34.862   38.167
H   1.089   34.317   39.749
H   1.266   36.071   39.370
H   -2.223   36.169   38.954
H   -0.832   36.998   39.572
H   -1.107   34.396   40.781
H   -2.678   35.088   41.039
H   -0.255   36.766   41.576
H   -0.502   35.497   42.736
H   -3.065   36.621   42.513
H   -1.700   39.183   42.918
H   -3.034   38.650   41.869
H   -1.425   38.623   41.222
H   -2.921   37.672   44.563
H   -1.109   37.914   44.542
H   -1.714   35.139   44.363
H   -2.788   35.775   45.626
H   -1.256   35.730   47.100
H   -0.391   36.986   46.357
H   0.313   34.785   44.902
H   -0.836   33.464   46.977
H   0.779   33.430   47.649
H   0.442   32.925   45.890
H   2.327   34.895   46.762
H   1.754   36.502   46.790
H   3.271   36.701   44.770
H   1.701   36.156   44.192
H   2.289   34.154   43.559
H   3.481   33.919   44.842
H   4.916   35.728   43.617
H   2.653   35.426   41.901
H   4.020   34.881   40.883
H   4.052   36.450   41.844
H   4.930   32.838   43.386
H   6.333   33.739   43.026
H   5.307   33.506   41.750

