%nproc=24
%mem=75GB
#p wB97XD/Def2SVP td=(nstates=5)

step_501_chromophore_7 TDDFT with wB97XD functional

0 1
Mg   25.267   0.120   29.485
C   27.141   -0.087   32.363
C   22.442   0.651   31.484
C   23.339   0.244   26.717
C   27.970   -0.768   27.635
N   24.827   -0.003   31.720
C   25.830   0.139   32.687
C   25.261   0.574   34.052
C   23.730   0.682   33.707
C   23.611   0.485   32.211
C   22.870   -0.302   34.490
C   25.807   1.875   34.740
C   26.649   1.687   36.116
C   25.987   2.434   37.278
O   25.565   3.603   37.241
O   25.751   1.599   38.264
N   23.213   0.298   29.141
C   22.239   0.640   30.093
C   20.974   1.014   29.452
C   21.160   0.829   27.977
C   22.636   0.500   27.852
C   19.749   1.445   30.228
C   20.233   0.966   26.863
O   20.598   0.661   25.718
C   18.790   1.407   27.035
N   25.613   -0.292   27.553
C   24.697   -0.048   26.513
C   25.292   -0.180   25.053
C   26.818   -0.547   25.434
C   26.798   -0.515   26.979
C   24.575   -1.290   24.137
C   27.833   0.469   24.806
C   29.136   -0.064   24.298
N   27.180   -0.444   29.944
C   28.217   -0.735   29.053
C   29.459   -0.850   29.738
C   29.085   -0.496   31.087
C   27.693   -0.346   31.127
C   30.820   -1.112   29.245
C   29.584   -0.414   32.424
O   30.700   -0.501   32.948
C   28.280   -0.285   33.335
C   28.184   -1.487   34.205
O   27.526   -2.441   34.060
O   28.929   -1.300   35.367
C   28.486   -2.071   36.510
C   24.815   1.918   39.326
C   25.221   1.428   40.626
C   24.524   1.566   41.790
C   23.061   2.030   41.783
C   25.107   1.216   43.161
C   24.933   2.295   44.320
C   24.169   1.675   45.437
C   23.610   2.617   46.530
C   23.491   1.965   47.931
C   22.332   3.321   46.042
C   22.465   4.886   46.248
C   21.997   5.455   47.581
C   23.059   6.454   48.242
C   23.695   5.557   49.327
C   22.342   7.695   48.794
C   22.772   8.964   47.999
C   21.680   9.717   47.282
C   22.231   10.641   46.154
C   22.501   12.040   46.607
C   21.350   10.726   44.861
H   21.583   0.904   32.109
H   22.844   0.324   25.747
H   28.870   -0.905   27.032
H   25.387   -0.247   34.757
H   23.315   1.644   34.009
H   22.437   -1.019   33.793
H   22.091   0.339   34.901
H   23.356   -0.791   35.334
H   24.956   2.525   34.945
H   26.499   2.407   34.087
H   27.582   2.200   35.882
H   26.761   0.629   36.352
H   19.346   0.546   30.696
H   19.028   1.849   29.519
H   19.975   2.106   31.065
H   18.283   1.103   26.119
H   18.675   2.475   27.223
H   18.184   0.864   27.760
H   25.324   0.800   24.578
H   27.167   -1.509   25.058
H   25.341   -1.796   23.549
H   23.915   -0.925   23.351
H   24.009   -2.020   24.716
H   28.058   1.322   25.446
H   27.453   0.927   23.893
H   29.883   0.355   24.972
H   29.546   0.287   23.351
H   29.136   -1.153   24.355
H   30.884   -0.763   28.214
H   30.899   -2.199   29.257
H   31.534   -0.736   29.978
H   28.353   0.599   33.968
H   28.856   -3.075   36.305
H   27.397   -2.053   36.470
H   28.922   -1.700   37.438
H   23.920   1.314   39.185
H   24.562   2.973   39.434
H   26.278   1.187   40.739
H   22.512   1.350   42.434
H   22.597   2.050   40.797
H   23.024   3.038   42.195
H   26.185   1.068   43.102
H   24.515   0.349   43.453
H   24.551   3.248   43.953
H   25.899   2.543   44.762
H   24.746   0.991   46.059
H   23.282   1.251   44.965
H   24.450   3.295   46.681
H   24.266   2.279   48.630
H   23.461   0.875   47.947
H   22.550   2.240   48.407
H   21.584   2.936   46.735
H   22.008   3.064   45.034
H   21.951   5.469   45.483
H   23.492   5.109   45.956
H   21.663   4.720   48.314
H   21.059   5.979   47.397
H   23.848   6.666   47.520
H   24.589   6.119   49.600
H   24.060   4.600   48.954
H   23.003   5.288   50.124
H   22.455   7.725   49.878
H   21.266   7.541   48.716
H   23.610   8.670   47.366
H   23.234   9.712   48.643
H   21.075   10.359   47.922
H   21.074   8.935   46.823
H   23.187   10.204   45.868
H   22.043   12.762   45.931
H   23.581   12.182   46.654
H   22.087   12.312   47.578
H   21.819   9.886   44.350
H   21.550   11.589   44.226
H   20.289   10.502   44.971

