%nproc=24
%mem=75GB
#p wB97XD/Def2SVP td=(nstates=5)

step_151_chromophore_26 TDDFT with wB97XD functional

0 1
Mg   -9.638   18.532   42.886
C   -6.202   18.070   43.088
C   -9.173   21.907   42.576
C   -12.876   18.788   42.270
C   -10.015   14.957   43.283
N   -7.906   19.863   42.749
C   -6.632   19.421   42.992
C   -5.641   20.630   43.134
C   -6.607   21.808   43.190
C   -7.955   21.192   42.891
C   -6.528   22.770   44.387
C   -4.597   20.716   41.943
C   -5.018   20.142   40.553
C   -5.373   21.098   39.420
O   -5.801   22.221   39.500
O   -5.090   20.468   38.248
N   -10.898   20.096   42.439
C   -10.489   21.407   42.316
C   -11.646   22.201   41.933
C   -12.647   21.266   41.578
C   -12.195   19.978   42.156
C   -11.673   23.712   41.725
C   -13.991   21.686   40.968
O   -14.184   22.870   40.652
C   -15.142   20.770   40.824
N   -11.233   16.994   42.769
C   -12.535   17.445   42.527
C   -13.555   16.291   42.650
C   -12.623   15.220   43.360
C   -11.193   15.719   43.140
C   -14.771   16.791   43.471
C   -12.832   13.758   42.832
C   -12.662   12.465   43.781
N   -8.412   16.802   43.017
C   -8.722   15.448   43.267
C   -7.494   14.775   43.518
C   -6.443   15.699   43.466
C   -7.049   16.899   43.091
C   -7.323   13.338   43.858
C   -5.028   16.047   43.711
O   -4.136   15.348   44.146
C   -4.814   17.560   43.307
C   -4.191   18.113   44.537
O   -4.721   18.036   45.640
O   -2.943   18.629   44.189
C   -2.117   19.381   45.153
C   -5.106   21.221   36.995
C   -6.142   20.754   35.986
C   -6.139   19.525   35.422
C   -5.301   18.333   35.895
C   -7.127   19.329   34.286
C   -8.327   18.376   34.550
C   -9.109   18.248   33.254
C   -10.587   18.553   33.416
C   -11.573   17.367   33.420
C   -11.214   19.513   32.420
C   -10.584   20.875   32.366
C   -9.808   21.262   31.084
C   -10.229   22.732   30.636
C   -9.593   23.823   31.443
C   -9.929   22.840   29.080
C   -11.212   23.434   28.327
C   -11.601   22.607   27.063
C   -10.509   22.609   25.848
C   -10.956   23.349   24.626
C   -10.158   21.159   25.463
H   -9.090   22.995   42.541
H   -13.924   18.846   41.969
H   -10.091   13.889   43.499
H   -5.133   20.506   44.090
H   -6.328   22.474   42.374
H   -7.247   22.506   45.162
H   -6.764   23.807   44.147
H   -5.561   22.773   44.891
H   -3.693   20.276   42.366
H   -4.436   21.781   41.781
H   -5.900   19.512   40.671
H   -4.219   19.496   40.190
H   -12.592   24.141   42.124
H   -11.505   24.078   40.712
H   -10.828   24.094   42.298
H   -15.521   20.368   41.764
H   -14.653   19.943   40.309
H   -15.753   21.291   40.087
H   -13.900   15.952   41.673
H   -12.886   15.160   44.416
H   -15.499   17.155   42.746
H   -14.501   17.594   44.157
H   -15.164   15.937   44.023
H   -12.029   13.826   42.098
H   -13.740   13.717   42.230
H   -11.726   11.961   43.539
H   -13.501   11.774   43.695
H   -12.595   12.824   44.808
H   -7.154   12.675   43.010
H   -8.269   12.990   44.273
H   -6.482   13.123   44.517
H   -4.006   17.499   42.578
H   -2.656   20.149   45.708
H   -1.285   19.731   44.542
H   -1.828   18.721   45.971
H   -4.091   21.172   36.601
H   -5.272   22.286   37.158
H   -6.901   21.457   35.642
H   -4.555   18.714   36.592
H   -4.939   17.777   35.030
H   -5.951   17.599   36.370
H   -6.544   18.994   33.428
H   -7.595   20.258   33.960
H   -8.979   18.640   35.383
H   -7.882   17.394   34.708
H   -9.117   17.184   33.020
H   -8.651   18.678   32.363
H   -10.623   19.102   34.357
H   -11.989   17.040   32.467
H   -12.405   17.518   34.106
H   -11.002   16.511   33.781
H   -12.259   19.704   32.664
H   -11.171   19.048   31.435
H   -9.903   21.125   33.179
H   -11.481   21.444   32.608
H   -10.110   20.507   30.358
H   -8.728   21.250   31.231
H   -11.289   22.907   30.818
H   -10.134   24.200   32.311
H   -9.599   24.723   30.828
H   -8.607   23.486   31.762
H   -9.579   21.857   28.765
H   -9.154   23.597   28.961
H   -11.020   24.483   28.100
H   -12.090   23.396   28.970
H   -12.566   22.924   26.667
H   -11.915   21.586   27.278
H   -9.595   23.104   26.176
H   -10.145   23.950   24.215
H   -11.883   23.893   24.806
H   -11.279   22.630   23.874
H   -10.967   20.586   25.010
H   -9.767   20.649   26.343
H   -9.297   21.271   24.804

