%nproc=24
%mem=50gb
#p ZINDO=(nstates=5)

step_251_chromophore_19 ZINDO

0 1
Mg   25.493   50.213   27.087
C   23.379   51.540   29.657
C   27.628   49.172   29.695
C   27.852   49.591   24.907
C   23.462   51.622   24.752
N   25.443   50.314   29.398
C   24.419   50.809   30.134
C   24.667   50.476   31.596
C   26.004   49.688   31.689
C   26.381   49.684   30.195
C   27.101   50.374   32.683
C   23.494   49.619   32.239
C   22.964   50.092   33.593
C   23.921   50.779   34.648
O   24.557   51.816   34.441
O   23.890   50.012   35.790
N   27.507   49.524   27.284
C   28.129   49.150   28.382
C   29.452   48.738   28.006
C   29.559   48.687   26.593
C   28.316   49.305   26.212
C   30.442   48.133   29.000
C   30.571   48.096   25.624
O   30.491   48.233   24.417
C   31.665   47.265   26.236
N   25.763   50.886   25.171
C   26.763   50.297   24.395
C   26.518   50.448   22.869
C   25.027   50.955   22.904
C   24.708   51.173   24.383
C   27.540   51.408   22.243
C   23.974   49.887   22.342
C   23.374   50.120   20.996
N   23.750   51.229   27.142
C   23.049   51.774   26.088
C   21.907   52.575   26.521
C   21.986   52.512   27.958
C   23.170   51.803   28.270
C   20.852   53.088   25.609
C   21.311   52.845   29.203
O   20.229   53.446   29.333
C   22.228   52.237   30.410
C   22.639   53.397   31.185
O   23.230   54.345   30.716
O   22.293   53.275   32.472
C   22.548   54.357   33.474
C   25.011   50.310   36.681
C   24.820   49.370   37.928
C   25.467   49.271   39.121
C   26.711   50.157   39.599
C   24.946   48.341   40.248
C   25.691   46.957   40.330
C   26.655   46.881   41.574
C   26.353   45.775   42.492
C   26.410   44.410   41.868
C   24.978   46.039   43.207
C   25.125   47.075   44.347
C   24.850   46.420   45.698
C   25.848   46.751   46.762
C   25.824   45.644   47.958
C   25.685   48.226   47.161
C   27.034   48.992   46.926
C   26.850   50.544   46.586
C   27.319   50.819   45.131
C   28.825   51.070   44.931
C   26.565   52.064   44.543
H   28.290   48.763   30.461
H   28.363   49.056   24.103
H   22.797   51.983   23.965
H   24.788   51.423   32.122
H   25.869   48.708   32.147
H   26.613   51.021   33.412
H   27.771   50.922   32.020
H   27.672   49.597   33.191
H   23.692   48.551   32.319
H   22.621   49.664   31.588
H   22.464   49.287   34.132
H   22.160   50.771   33.309
H   30.456   47.043   29.009
H   30.327   48.564   29.995
H   31.427   48.483   28.692
H   31.350   46.604   27.044
H   32.500   47.835   26.641
H   31.976   46.508   25.516
H   26.628   49.459   22.425
H   24.971   51.866   22.308
H   28.366   51.680   22.900
H   27.082   52.356   21.963
H   27.945   50.958   21.336
H   23.096   49.736   22.970
H   24.372   48.873   22.330
H   23.669   49.327   20.310
H   23.801   51.079   20.702
H   22.286   50.133   21.060
H   19.874   53.080   26.089
H   20.940   52.512   24.688
H   21.113   54.123   25.384
H   21.659   51.564   31.050
H   22.177   55.305   33.084
H   23.608   54.481   33.697
H   22.165   54.132   34.469
H   25.084   51.298   37.136
H   25.898   50.285   36.047
H   24.026   48.646   37.748
H   26.310   51.038   40.100
H   27.308   50.536   38.769
H   27.343   49.517   40.215
H   23.920   48.105   39.962
H   24.837   48.943   41.150
H   26.351   46.863   39.468
H   24.942   46.164   40.340
H   26.621   47.832   42.105
H   27.639   46.726   41.131
H   27.106   45.807   43.279
H   26.134   43.685   42.634
H   27.409   44.109   41.551
H   25.766   44.290   40.997
H   24.409   45.164   43.521
H   24.225   46.443   42.531
H   24.288   47.772   44.350
H   26.120   47.492   44.500
H   24.813   45.338   45.567
H   23.847   46.609   46.081
H   26.869   46.596   46.412
H   26.476   45.970   48.768
H   26.035   44.617   47.662
H   24.834   45.461   48.377
H   25.481   48.290   48.230
H   24.846   48.679   46.633
H   27.700   48.500   46.217
H   27.389   49.062   47.954
H   27.545   51.043   47.263
H   25.838   50.864   46.831
H   27.047   50.046   44.412
H   29.004   52.116   44.683
H   29.202   50.415   44.144
H   29.388   50.914   45.851
H   27.169   52.968   44.470
H   25.601   52.263   45.011
H   26.391   51.854   43.488

