%nproc=24
%mem=75GB
#p cam-b3lyp/Def2SVP td=(nstates=5)

step_1251_chromophore_16 TDDFT with cam-b3lyp functional

0 1
Mg   40.403   42.164   27.105
C   39.666   44.239   29.730
C   41.224   39.596   29.328
C   41.455   40.167   24.487
C   40.056   44.744   24.843
N   40.529   41.980   29.374
C   40.088   42.955   30.226
C   40.132   42.455   31.740
C   40.673   41.011   31.519
C   40.892   40.789   29.993
C   41.972   40.519   32.352
C   38.808   42.682   32.557
C   38.670   42.057   34.019
C   38.872   43.039   35.271
O   39.856   43.616   35.644
O   37.601   43.134   35.911
N   41.174   40.238   27.006
C   41.437   39.330   27.975
C   41.821   38.027   27.464
C   41.684   38.147   26.034
C   41.450   39.583   25.792
C   42.315   36.898   28.402
C   41.791   37.042   24.976
O   41.706   37.153   23.781
C   41.987   35.645   25.611
N   40.687   42.399   24.886
C   41.126   41.444   24.022
C   41.099   41.888   22.510
C   40.670   43.408   22.648
C   40.402   43.543   24.202
C   42.431   41.597   21.793
C   39.629   43.844   21.608
C   38.201   43.554   22.005
N   40.022   44.062   27.241
C   39.863   44.975   26.215
C   39.426   46.282   26.810
C   39.262   45.996   28.188
C   39.688   44.666   28.362
C   38.963   47.453   26.074
C   38.915   46.634   29.346
O   38.601   47.773   29.659
C   39.120   45.493   30.475
C   40.005   46.021   31.498
O   41.218   46.150   31.368
O   39.296   46.483   32.592
C   39.962   47.320   33.668
C   37.495   43.894   37.219
C   37.931   42.975   38.349
C   37.815   43.111   39.669
C   36.976   44.280   40.266
C   38.299   42.043   40.535
C   37.234   41.037   41.087
C   37.917   39.758   41.480
C   37.489   39.261   42.879
C   38.719   38.765   43.719
C   36.399   38.157   42.876
C   35.460   38.132   44.174
C   35.289   36.664   44.712
C   33.864   36.304   45.116
C   33.521   36.767   46.573
C   33.633   34.745   45.031
C   32.952   34.386   43.646
C   31.395   34.607   43.855
C   30.753   33.229   44.240
C   30.184   33.291   45.640
C   29.639   32.913   43.140
H   41.416   38.794   30.043
H   41.751   39.661   23.566
H   39.876   45.623   24.220
H   40.969   42.937   32.245
H   39.925   40.287   31.843
H   41.777   39.675   33.013
H   42.274   41.341   33.002
H   42.781   40.318   31.650
H   37.909   42.490   31.972
H   38.701   43.757   32.701
H   39.438   41.283   34.038
H   37.728   41.519   34.122
H   43.184   36.498   27.879
H   41.625   36.095   28.662
H   42.599   37.138   29.427
H   41.781   34.924   24.820
H   41.164   35.527   26.316
H   42.986   35.568   26.040
H   40.225   41.424   22.054
H   41.527   44.015   22.358
H   42.159   40.693   21.247
H   43.223   41.270   22.468
H   42.735   42.344   21.061
H   39.846   43.493   20.599
H   39.761   44.921   21.503
H   37.738   42.761   21.417
H   37.563   44.405   21.765
H   37.998   43.178   23.008
H   37.890   47.467   25.882
H   39.549   47.620   25.170
H   39.174   48.257   26.779
H   38.219   45.249   31.039
H   40.498   48.188   33.285
H   40.596   46.664   34.265
H   39.209   47.645   34.385
H   36.413   43.948   37.344
H   38.004   44.857   37.258
H   38.456   42.090   37.989
H   36.374   43.893   41.088
H   36.167   44.678   39.654
H   37.593   45.102   40.630
H   38.652   42.645   41.373
H   39.185   41.624   40.057
H   36.579   40.757   40.262
H   36.652   41.432   41.920
H   38.998   39.841   41.598
H   37.685   38.931   40.810
H   37.216   40.083   43.541
H   38.577   37.805   44.216
H   38.914   39.463   44.532
H   39.590   38.546   43.101
H   36.830   37.188   42.623
H   35.736   38.485   42.075
H   34.515   38.641   43.984
H   36.157   38.641   44.840
H   35.985   36.432   45.518
H   35.614   35.953   43.953
H   33.202   36.809   44.413
H   33.763   35.936   47.235
H   32.489   37.104   46.668
H   34.213   37.600   46.696
H   32.966   34.430   45.833
H   34.563   34.181   44.961
H   33.167   33.355   43.368
H   33.316   35.031   42.845
H   30.898   35.046   42.990
H   31.239   35.295   44.686
H   31.411   32.361   44.288
H   30.864   32.756   46.304
H   29.253   32.726   45.669
H   29.996   34.320   45.948
H   29.587   33.632   42.322
H   28.679   32.804   43.643
H   29.866   31.965   42.651

