%nproc=24
%mem=50gb
#p ZINDO=(nstates=5)

step_901_chromophore_20 ZINDO

0 1
Mg   7.322   57.152   42.094
C   5.540   54.108   41.734
C   10.008   55.627   40.718
C   8.574   60.300   41.595
C   4.214   58.731   43.065
N   7.634   55.100   41.264
C   6.793   54.036   41.148
C   7.445   52.840   40.519
C   9.021   53.236   40.710
C   8.878   54.731   40.786
C   9.725   52.642   41.996
C   7.002   52.749   39.071
C   7.383   51.489   38.325
C   6.430   50.943   37.323
O   5.539   50.066   37.500
O   6.515   51.694   36.183
N   8.990   57.829   41.307
C   9.987   57.065   40.839
C   11.152   57.871   40.439
C   10.756   59.260   40.546
C   9.386   59.207   41.169
C   12.507   57.333   40.065
C   11.644   60.421   40.249
O   12.715   60.209   39.673
C   11.206   61.782   40.559
N   6.496   59.273   42.486
C   7.256   60.297   42.119
C   6.391   61.594   42.275
C   5.017   61.090   42.751
C   5.242   59.607   42.842
C   7.069   62.587   43.208
C   3.721   61.443   41.898
C   2.809   62.457   42.520
N   5.290   56.590   42.406
C   4.199   57.288   42.858
C   3.046   56.370   43.006
C   3.546   55.119   42.611
C   4.893   55.297   42.204
C   1.647   56.559   43.584
C   3.163   53.703   42.511
O   2.196   53.058   42.817
C   4.501   53.011   41.938
C   3.986   52.420   40.653
O   3.562   53.066   39.670
O   4.018   51.089   40.724
C   3.129   50.401   39.814
C   5.718   51.289   35.004
C   5.982   52.211   33.809
C   5.279   52.159   32.639
C   4.350   51.048   32.217
C   5.546   53.224   31.609
C   4.785   54.609   31.786
C   4.264   55.120   30.458
C   4.871   56.534   30.142
C   4.104   57.292   29.151
C   6.368   56.381   29.692
C   7.244   57.441   30.380
C   8.433   56.959   31.227
C   9.694   56.479   30.449
C   10.135   55.081   30.792
C   10.886   57.512   30.601
C   11.648   57.730   29.266
C   13.154   58.041   29.515
C   14.106   56.952   28.929
C   15.501   57.065   29.545
C   14.172   57.213   27.425
H   10.937   55.098   40.494
H   8.918   61.282   41.263
H   3.280   59.116   43.479
H   7.261   51.903   41.045
H   9.611   52.898   39.858
H   8.983   52.080   42.563
H   10.149   53.373   42.686
H   10.459   51.891   41.704
H   7.573   53.511   38.541
H   5.921   52.872   38.996
H   7.646   50.677   39.003
H   8.254   51.689   37.701
H   12.661   56.361   40.534
H   13.220   58.041   40.487
H   12.604   57.259   38.982
H   11.035   61.787   41.636
H   10.322   62.076   39.994
H   12.057   62.427   40.340
H   6.259   62.141   41.341
H   4.996   61.404   43.794
H   8.040   62.864   42.796
H   7.307   62.055   44.129
H   6.498   63.507   43.337
H   3.261   60.497   41.613
H   4.159   61.926   41.025
H   2.189   61.909   43.230
H   2.344   63.032   41.719
H   3.401   63.166   43.098
H   0.862   56.271   42.885
H   1.580   57.567   43.995
H   1.487   55.941   44.467
H   4.831   52.226   42.618
H   2.094   50.596   40.096
H   3.281   49.322   39.848
H   3.275   50.610   38.754
H   4.712   51.530   35.347
H   5.998   50.262   34.768
H   6.744   52.979   33.946
H   4.812   50.537   31.373
H   3.403   51.414   31.821
H   4.162   50.190   32.861
H   5.360   52.784   30.630
H   6.618   53.413   31.654
H   5.536   55.320   32.133
H   3.952   54.546   32.485
H   3.188   55.231   30.594
H   4.649   54.486   29.660
H   4.765   57.046   31.098
H   3.045   57.359   29.397
H   4.199   56.913   28.133
H   4.500   58.291   29.335
H   6.571   56.336   28.622
H   6.680   55.395   30.036
H   6.580   58.061   30.984
H   7.649   58.108   29.619
H   8.029   56.150   31.835
H   8.676   57.728   31.960
H   9.355   56.496   29.413
H   10.198   54.484   29.882
H   9.377   54.719   31.487
H   11.128   55.056   31.240
H   11.570   57.128   31.358
H   10.516   58.474   30.953
H   11.198   58.604   28.795
H   11.501   56.915   28.557
H   13.404   58.359   30.527
H   13.266   59.000   29.010
H   13.755   55.931   29.077
H   15.569   57.742   30.397
H   16.164   57.470   28.780
H   15.820   56.055   29.800
H   14.919   57.945   27.119
H   13.229   57.680   27.141
H   14.436   56.297   26.896

