%nproc=24
%mem=75GB
#p wB97XD/Def2SVP td=(nstates=5)

step_1201_chromophore_12 TDDFT with wB97XD functional

0 1
Mg   46.700   16.326   28.463
C   44.647   15.514   31.225
C   48.474   18.185   30.401
C   48.691   16.634   25.840
C   44.453   14.361   26.479
N   46.637   16.747   30.553
C   45.696   16.375   31.533
C   46.131   16.940   32.898
C   47.180   17.959   32.500
C   47.510   17.563   31.136
C   46.724   19.476   32.416
C   46.671   15.777   33.776
C   46.585   16.020   35.274
C   47.963   16.016   36.040
O   48.998   15.386   35.709
O   47.821   16.767   37.172
N   48.409   17.351   28.207
C   49.016   18.103   29.132
C   50.266   18.656   28.633
C   50.379   18.184   27.279
C   49.186   17.298   27.073
C   51.183   19.587   29.428
C   51.473   18.484   26.256
O   51.496   17.915   25.191
C   52.626   19.440   26.592
N   46.548   15.507   26.484
C   47.571   15.861   25.621
C   47.248   15.444   24.231
C   45.864   14.753   24.406
C   45.568   14.864   25.876
C   47.264   16.604   23.241
C   45.775   13.344   23.833
C   46.390   12.155   24.702
N   44.856   15.200   28.769
C   44.119   14.463   27.841
C   43.032   13.878   28.523
C   43.226   14.168   29.867
C   44.342   14.989   29.937
C   41.857   13.283   27.819
C   42.666   14.094   31.232
O   41.656   13.539   31.645
C   43.624   14.855   32.155
C   42.867   15.903   32.962
O   42.651   17.072   32.632
O   42.381   15.411   34.189
C   41.496   16.279   35.044
C   49.050   16.856   38.068
C   49.037   18.201   38.709
C   50.118   18.938   39.203
C   51.565   18.375   39.050
C   49.963   20.204   40.038
C   50.708   21.389   39.467
C   51.981   21.827   40.179
C   53.118   22.100   39.097
C   54.554   21.973   39.584
C   52.916   23.393   38.280
C   52.550   23.066   36.817
C   52.366   24.384   36.011
C   52.794   24.155   34.556
C   54.329   24.431   34.497
C   52.008   25.070   33.566
C   50.838   24.288   32.886
C   51.179   23.401   31.689
C   50.417   23.732   30.406
C   49.176   22.702   30.388
C   51.280   23.573   29.167
H   49.102   18.755   31.089
H   49.382   16.723   25.000
H   43.786   13.805   25.817
H   45.291   17.405   33.415
H   48.085   17.991   33.107
H   47.340   20.108   33.056
H   45.757   19.482   32.917
H   46.684   19.955   31.437
H   47.675   15.558   33.413
H   46.190   14.818   33.584
H   45.954   15.231   35.684
H   46.123   17.002   35.371
H   52.186   19.174   29.534
H   50.657   19.779   30.363
H   51.286   20.549   28.925
H   52.244   20.368   27.015
H   53.115   19.636   25.638
H   53.185   18.986   27.410
H   48.047   14.720   24.072
H   45.079   15.303   23.887
H   46.654   17.417   23.633
H   46.834   16.300   22.287
H   48.303   16.898   23.089
H   46.453   13.343   22.979
H   44.755   13.176   23.485
H   47.248   11.704   24.202
H   45.670   11.339   24.763
H   46.798   12.416   25.679
H   42.294   12.430   27.301
H   41.291   13.973   27.192
H   41.232   13.012   28.670
H   44.050   14.114   32.832
H   42.234   16.910   35.538
H   40.739   15.851   35.701
H   40.946   16.850   34.296
H   49.952   16.593   37.516
H   48.971   16.193   38.930
H   48.048   18.480   39.073
H   51.844   18.217   38.008
H   51.673   17.389   39.503
H   52.326   18.997   39.520
H   50.533   20.015   40.948
H   48.910   20.440   40.191
H   49.927   22.149   39.462
H   51.002   21.128   38.450
H   52.413   21.088   40.853
H   51.753   22.733   40.741
H   52.997   21.210   38.480
H   54.574   22.025   40.673
H   55.303   22.595   39.096
H   54.725   20.913   39.399
H   53.823   23.991   38.359
H   52.089   23.931   38.746
H   51.581   22.578   36.712
H   53.416   22.477   36.515
H   52.823   25.244   36.501
H   51.321   24.681   36.094
H   52.607   23.117   34.281
H   54.904   24.199   35.394
H   54.510   25.451   34.158
H   54.616   23.726   33.718
H   52.709   25.408   32.803
H   51.692   25.972   34.091
H   50.055   24.981   32.577
H   50.373   23.637   33.627
H   51.066   22.371   32.027
H   52.253   23.422   31.504
H   50.047   24.754   30.479
H   49.484   21.735   30.785
H   48.939   22.539   29.337
H   48.249   23.086   30.813
H   52.207   23.063   29.430
H   51.334   24.579   28.750
H   50.790   23.106   28.312

