%nproc=24
%mem=75GB
#p cam-b3lyp/Def2SVP td=(nstates=5)

step_451_chromophore_8 TDDFT with cam-b3lyp functional

0 1
Mg   44.978   2.280   47.421
C   42.944   5.066   46.995
C   42.096   0.333   47.240
C   46.990   -0.501   46.906
C   47.640   4.266   46.596
N   42.678   2.677   46.987
C   42.147   3.897   46.910
C   40.609   3.820   46.668
C   40.332   2.278   47.001
C   41.765   1.682   47.089
C   39.479   2.209   48.248
C   40.187   4.400   45.282
C   39.042   5.427   45.253
C   38.504   5.613   43.887
O   37.295   5.588   43.568
O   39.584   5.880   43.030
N   44.629   0.156   47.345
C   43.368   -0.411   47.271
C   43.629   -1.813   47.322
C   45.001   -2.145   47.061
C   45.624   -0.797   47.138
C   42.474   -2.810   47.501
C   45.738   -3.476   46.865
O   45.089   -4.547   46.981
C   47.143   -3.629   46.399
N   46.996   1.956   46.737
C   47.637   0.745   46.813
C   49.138   0.810   46.601
C   49.252   2.262   46.245
C   47.885   2.886   46.548
C   49.917   0.363   47.853
C   49.779   2.536   44.743
C   50.899   1.671   44.144
N   45.380   4.307   47.145
C   46.448   4.991   46.886
C   46.215   6.416   46.886
C   44.853   6.537   46.966
C   44.346   5.170   47.062
C   47.275   7.500   46.604
C   43.741   7.419   46.955
O   43.693   8.601   46.872
C   42.517   6.554   47.002
C   41.726   6.873   48.134
O   42.084   6.740   49.307
O   40.408   7.219   47.843
C   39.439   7.351   48.935
C   39.123   6.228   41.646
C   40.197   5.666   40.678
C   40.311   6.007   39.347
C   39.432   7.143   38.723
C   41.373   5.434   38.466
C   40.929   4.188   37.540
C   41.664   2.914   37.977
C   42.736   2.465   36.938
C   42.989   0.958   37.096
C   44.088   3.192   37.267
C   44.271   4.275   36.251
C   45.663   4.074   35.512
C   45.596   3.447   34.122
C   46.864   2.527   34.001
C   45.689   4.621   33.087
C   45.334   4.276   31.648
C   44.187   5.093   31.170
C   43.096   4.225   30.528
C   41.790   4.998   30.577
C   43.424   3.737   29.031
H   41.180   -0.261   47.235
H   47.726   -1.306   46.851
H   48.482   4.935   46.407
H   40.158   4.427   47.453
H   39.728   1.930   46.163
H   39.272   3.185   48.687
H   40.016   1.619   48.991
H   38.503   1.811   47.971
H   39.952   3.721   44.462
H   41.052   4.892   44.837
H   39.500   6.382   45.511
H   38.311   5.040   45.963
H   41.812   -2.769   46.637
H   41.944   -2.298   48.304
H   42.790   -3.835   47.694
H   47.297   -3.020   45.509
H   47.335   -4.629   46.010
H   47.938   -3.421   47.115
H   49.441   0.234   45.726
H   50.045   2.568   46.927
H   49.759   -0.680   48.127
H   49.719   0.990   48.722
H   50.992   0.315   47.681
H   50.148   3.547   44.567
H   48.873   2.462   44.141
H   51.272   1.032   44.944
H   51.700   2.276   43.717
H   50.493   1.077   43.325
H   47.277   7.698   45.532
H   48.214   7.280   47.111
H   46.835   8.358   47.112
H   41.933   6.740   46.100
H   38.530   7.895   48.678
H   39.839   7.902   49.787
H   39.198   6.363   49.328
H   39.118   7.314   41.740
H   38.093   5.985   41.384
H   40.769   4.885   41.179
H   38.514   7.434   39.233
H   39.114   6.696   37.781
H   40.064   8.009   38.528
H   42.107   5.085   39.192
H   41.796   6.158   37.769
H   41.213   4.512   36.539
H   39.845   4.150   37.425
H   40.998   2.087   38.226
H   42.011   2.931   39.011
H   42.265   2.542   35.959
H   43.835   0.656   36.478
H   42.170   0.254   36.951
H   43.224   0.868   38.157
H   44.875   2.438   37.238
H   44.047   3.530   38.302
H   44.418   5.242   36.732
H   43.484   4.295   35.497
H   46.353   3.498   36.130
H   46.052   5.085   35.386
H   44.683   2.868   33.984
H   46.681   1.689   33.328
H   47.244   2.029   34.893
H   47.766   2.998   33.611
H   46.737   4.922   33.103
H   45.124   5.460   33.494
H   45.133   3.206   31.594
H   46.198   4.619   31.080
H   44.645   5.774   30.453
H   43.734   5.706   31.949
H   42.860   3.351   31.136
H   41.173   4.654   29.748
H   42.011   6.064   30.512
H   41.162   4.751   31.434
H   44.228   4.327   28.591
H   42.563   3.839   28.372
H   43.655   2.674   28.958

