%nproc=24
%mem=75GB
#p cam-b3lyp/Def2SVP td=(nstates=5)

step_1_chromophore_25 TDDFT with cam-b3lyp functional

0 1
Mg   -2.590   34.017   26.794
C   -3.620   32.414   29.773
C   -1.153   36.458   28.719
C   -2.206   35.825   24.046
C   -4.517   31.709   25.002
N   -2.552   34.472   29.003
C   -2.952   33.593   30.013
C   -2.377   34.057   31.374
C   -1.602   35.375   31.007
C   -1.716   35.466   29.460
C   -1.914   36.614   31.828
C   -1.509   33.042   32.134
C   -1.989   32.764   33.585
C   -0.958   32.997   34.667
O   0.230   32.674   34.656
O   -1.447   33.677   35.743
N   -1.702   35.860   26.449
C   -1.192   36.749   27.349
C   -0.551   37.807   26.605
C   -0.985   37.710   25.214
C   -1.680   36.432   25.232
C   0.226   39.027   27.325
C   -1.036   38.702   24.133
O   -1.406   38.534   23.006
C   -0.576   40.110   24.499
N   -3.466   33.878   24.823
C   -3.083   34.731   23.853
C   -3.525   34.222   22.479
C   -3.927   32.767   22.769
C   -3.945   32.737   24.281
C   -4.740   35.083   21.901
C   -2.770   31.795   22.205
C   -1.443   31.788   23.012
N   -3.752   32.293   27.191
C   -4.441   31.482   26.372
C   -5.055   30.455   27.170
C   -4.721   30.752   28.478
C   -3.969   31.930   28.477
C   -5.921   29.290   26.730
C   -4.970   30.275   29.841
O   -5.630   29.441   30.394
C   -4.203   31.284   30.736
C   -5.222   31.862   31.647
O   -6.224   32.380   31.222
O   -4.941   31.662   32.989
C   -6.056   31.947   33.953
C   -0.532   33.967   36.843
C   -1.148   34.905   37.927
C   -0.498   35.682   38.837
C   1.005   35.920   39.103
C   -1.417   36.450   39.810
C   -1.154   36.246   41.313
C   -1.252   37.518   42.152
C   -0.957   37.309   43.654
C   -2.264   37.101   44.496
C   -0.125   38.520   44.270
C   1.406   38.147   44.234
C   2.057   37.958   45.716
C   2.540   36.521   45.970
C   2.997   36.305   47.453
C   3.775   36.238   45.039
C   3.468   35.083   44.103
C   3.847   35.570   42.615
C   5.048   34.843   41.920
C   6.362   35.175   42.715
C   5.156   35.126   40.381
H   -0.526   37.109   29.332
H   -2.006   36.320   23.093
H   -4.957   30.834   24.519
H   -3.203   34.376   32.010
H   -0.555   35.232   31.275
H   -2.846   36.497   32.379
H   -1.952   37.532   31.241
H   -1.135   36.669   32.588
H   -0.458   33.284   32.292
H   -1.474   32.091   31.603
H   -2.465   31.787   33.668
H   -2.773   33.485   33.813
H   1.186   39.151   26.824
H   0.479   38.885   28.375
H   -0.267   39.997   27.389
H   0.469   39.967   24.775
H   -1.197   40.391   25.349
H   -0.593   40.824   23.675
H   -2.716   34.179   21.749
H   -4.902   32.392   22.457
H   -4.665   35.043   20.814
H   -4.797   36.142   22.155
H   -5.626   34.539   22.228
H   -2.531   31.986   21.159
H   -3.070   30.756   22.342
H   -0.610   31.269   22.539
H   -1.639   31.283   23.958
H   -1.179   32.826   23.217
H   -5.416   28.574   26.082
H   -6.720   29.767   26.163
H   -6.408   28.788   27.566
H   -3.527   30.646   31.305
H   -5.485   32.486   34.709
H   -6.484   31.045   34.390
H   -6.924   32.524   33.635
H   0.358   34.454   36.445
H   -0.250   33.021   37.305
H   -2.233   34.905   37.826
H   1.252   36.981   39.124
H   1.518   35.467   38.255
H   1.366   35.320   39.939
H   -2.443   36.134   39.624
H   -1.351   37.520   39.612
H   -0.164   35.898   41.607
H   -1.940   35.610   41.721
H   -2.273   37.892   42.073
H   -0.764   38.351   41.646
H   -0.360   36.413   43.823
H   -3.203   37.086   43.944
H   -2.434   37.799   45.316
H   -2.143   36.138   44.992
H   -0.443   38.662   45.303
H   -0.374   39.444   43.747
H   1.943   38.958   43.743
H   1.610   37.256   43.640
H   1.256   38.259   46.391
H   2.891   38.616   45.963
H   1.697   35.837   45.878
H   3.740   35.508   47.478
H   2.262   35.811   48.089
H   3.408   37.198   47.924
H   4.565   35.802   45.650
H   4.198   37.172   44.669
H   2.392   34.925   44.029
H   3.951   34.144   44.374
H   4.002   36.646   42.541
H   2.950   35.300   42.058
H   4.875   33.769   41.985
H   6.227   35.987   43.430
H   7.173   35.472   42.049
H   6.718   34.282   43.228
H   4.578   34.348   39.882
H   6.179   35.078   40.008
H   4.649   36.067   40.168

