%nproc=24
%mem=50gb
#p ZINDO=(nstates=5)

step_1501_chromophore_26 ZINDO

0 1
Mg   -8.537   18.271   42.878
C   -5.071   17.717   42.747
C   -8.077   21.570   41.486
C   -11.799   18.507   42.238
C   -8.965   14.779   43.044
N   -6.804   19.439   42.208
C   -5.428   19.060   42.267
C   -4.541   20.196   41.929
C   -5.542   21.382   41.577
C   -6.918   20.750   41.728
C   -5.311   22.711   42.345
C   -3.399   19.857   40.880
C   -3.731   18.902   39.655
C   -3.427   19.521   38.311
O   -2.455   20.241   38.098
O   -4.451   19.235   37.431
N   -9.863   19.922   42.215
C   -9.442   21.170   41.696
C   -10.664   21.884   41.361
C   -11.809   20.996   41.664
C   -11.165   19.747   42.046
C   -10.603   23.277   40.767
C   -13.284   21.344   41.393
O   -13.517   22.406   40.871
C   -14.366   20.522   41.747
N   -10.154   16.810   42.643
C   -11.476   17.240   42.587
C   -12.462   16.140   42.893
C   -11.535   14.910   42.994
C   -10.134   15.515   42.980
C   -13.509   16.332   44.037
C   -11.663   13.818   41.868
C   -11.797   12.319   42.281
N   -7.219   16.570   43.065
C   -7.595   15.187   43.147
C   -6.394   14.468   43.422
C   -5.373   15.407   43.269
C   -5.910   16.630   43.034
C   -6.180   13.062   43.766
C   -3.938   15.584   43.329
O   -3.042   14.764   43.487
C   -3.661   17.092   43.029
C   -2.781   17.667   44.111
O   -1.570   17.775   43.976
O   -3.538   18.183   45.143
C   -2.884   18.833   46.290
C   -4.314   19.905   36.089
C   -5.357   19.127   35.252
C   -6.095   19.649   34.196
C   -5.877   21.023   33.660
C   -6.995   18.593   33.554
C   -7.581   18.995   32.158
C   -9.055   18.595   31.914
C   -10.140   19.650   32.256
C   -11.517   19.002   32.658
C   -10.343   20.690   31.150
C   -10.621   22.102   31.647
C   -9.558   23.202   31.321
C   -10.032   24.160   30.174
C   -9.382   25.462   30.455
C   -9.763   23.552   28.689
C   -11.032   22.773   28.236
C   -11.676   23.226   26.923
C   -10.974   22.427   25.732
C   -10.261   23.369   24.756
C   -12.009   21.477   25.027
H   -7.981   22.625   41.222
H   -12.876   18.502   42.054
H   -9.063   13.691   43.033
H   -3.979   20.419   42.836
H   -5.395   21.625   40.525
H   -6.217   22.918   42.913
H   -5.117   23.493   41.611
H   -4.498   22.524   43.046
H   -2.509   19.546   41.427
H   -3.094   20.783   40.392
H   -4.763   18.567   39.759
H   -3.155   17.977   39.704
H   -9.948   23.320   39.897
H   -10.231   23.890   41.588
H   -11.546   23.731   40.461
H   -14.016   20.113   42.694
H   -14.491   19.639   41.120
H   -15.274   21.108   41.889
H   -12.941   15.913   41.941
H   -11.931   14.416   43.881
H   -14.429   16.495   43.476
H   -13.266   17.232   44.602
H   -13.740   15.511   44.717
H   -10.805   13.874   41.198
H   -12.531   13.944   41.221
H   -12.714   11.903   41.862
H   -11.841   12.342   43.370
H   -10.969   11.693   41.951
H   -5.610   12.662   42.927
H   -7.130   12.542   43.888
H   -5.563   13.112   44.663
H   -3.045   17.055   42.131
H   -3.316   19.834   46.307
H   -1.808   18.791   46.125
H   -3.148   18.271   47.186
H   -3.307   19.833   35.680
H   -4.493   20.980   36.089
H   -5.657   18.157   35.649
H   -6.828   21.494   33.908
H   -5.712   21.071   32.584
H   -5.020   21.573   34.048
H   -7.800   18.342   34.246
H   -6.424   17.691   33.337
H   -7.101   18.543   31.290
H   -7.503   20.077   32.056
H   -9.245   17.790   32.624
H   -9.068   18.381   30.845
H   -9.803   20.225   33.119
H   -11.625   18.898   33.738
H   -11.609   18.017   32.202
H   -12.330   19.636   32.304
H   -11.099   20.350   30.442
H   -9.397   20.748   30.611
H   -10.819   22.044   32.717
H   -11.510   22.359   31.071
H   -8.609   22.719   31.088
H   -9.312   23.740   32.237
H   -11.095   24.347   30.330
H   -8.615   25.496   31.229
H   -10.191   26.148   30.703
H   -8.998   25.854   29.513
H   -8.991   22.783   28.699
H   -9.423   24.375   28.061
H   -11.883   22.747   28.917
H   -10.631   21.759   28.244
H   -11.275   24.237   26.842
H   -12.766   23.235   26.914
H   -10.330   21.653   26.149
H   -9.553   22.936   24.050
H   -9.729   24.129   25.329
H   -11.075   23.828   24.194
H   -12.262   21.767   24.007
H   -12.829   21.187   25.684
H   -11.594   20.477   24.904

