%nproc=24
%mem=75GB
#p wB97XD/Def2SVP td=(nstates=5)

step_951_chromophore_9 TDDFT with wB97XD functional

0 1
Mg   35.794   1.721   29.838
C   33.487   2.316   32.276
C   38.344   1.593   32.129
C   37.981   1.225   27.356
C   33.173   1.697   27.436
N   35.874   1.871   31.949
C   34.767   2.000   32.782
C   35.241   2.246   34.198
C   36.861   2.273   34.132
C   37.060   1.928   32.611
C   37.554   3.608   34.479
C   34.795   1.112   35.114
C   34.946   1.254   36.611
C   35.275   2.652   37.220
O   34.614   3.691   37.092
O   36.438   2.633   37.922
N   37.952   1.527   29.739
C   38.777   1.452   30.770
C   40.184   1.340   30.336
C   40.071   1.272   28.918
C   38.643   1.357   28.610
C   41.323   1.262   31.279
C   41.115   1.049   27.885
O   40.921   1.070   26.693
C   42.490   0.763   28.268
N   35.584   1.321   27.766
C   36.694   1.252   26.929
C   36.339   1.198   25.450
C   34.728   1.128   25.508
C   34.430   1.396   26.974
C   36.916   2.464   24.657
C   34.170   -0.163   24.898
C   33.687   -1.337   25.719
N   33.679   2.016   29.771
C   32.774   1.941   28.780
C   31.428   2.371   29.346
C   31.686   2.401   30.745
C   33.048   2.234   30.954
C   30.069   2.561   28.707
C   30.990   2.693   32.027
O   29.834   2.998   32.356
C   32.171   2.570   33.046
C   32.135   3.748   33.980
O   32.558   4.882   33.786
O   31.557   3.372   35.172
C   31.365   4.619   36.047
C   37.064   3.823   38.376
C   38.050   3.492   39.500
C   37.887   3.009   40.783
C   36.575   2.751   41.366
C   39.068   2.786   41.748
C   39.861   1.548   41.448
C   40.599   0.895   42.686
C   41.994   0.428   42.334
C   42.049   -1.039   41.962
C   42.992   0.879   43.485
C   43.193   2.435   43.568
C   44.727   2.757   43.684
C   45.156   4.011   42.858
C   46.673   3.994   42.452
C   44.795   5.417   43.443
C   44.406   6.480   42.411
C   45.076   7.844   42.637
C   44.101   9.085   42.321
C   42.978   9.340   43.272
C   43.399   8.944   40.896
H   39.209   1.516   32.791
H   38.658   1.142   26.503
H   32.343   1.926   26.763
H   34.962   3.223   34.591
H   37.230   1.435   34.724
H   38.082   4.111   33.668
H   38.125   3.418   35.387
H   36.819   4.313   34.866
H   35.270   0.168   34.845
H   33.729   0.972   34.938
H   35.789   0.616   36.878
H   33.999   0.911   37.027
H   42.204   1.763   30.877
H   41.564   0.200   31.325
H   41.183   1.768   32.234
H   42.531   -0.044   28.999
H   43.049   1.603   28.681
H   43.099   0.443   27.422
H   36.668   0.251   25.023
H   34.280   1.961   24.965
H   36.210   2.821   23.907
H   37.777   2.036   24.143
H   37.157   3.193   25.431
H   34.876   -0.626   24.208
H   33.301   0.176   24.335
H   33.888   -1.243   26.786
H   34.220   -2.254   25.468
H   32.601   -1.411   25.658
H   30.076   2.111   27.715
H   29.809   3.617   28.621
H   29.279   2.096   29.297
H   31.872   1.663   33.571
H   31.318   4.294   37.087
H   30.434   5.108   35.762
H   32.219   5.293   36.112
H   36.309   4.443   38.859
H   37.625   4.304   37.575
H   39.070   3.701   39.178
H   36.601   1.708   41.681
H   35.740   2.910   40.684
H   36.299   3.442   42.162
H   38.755   2.725   42.790
H   39.596   3.739   41.710
H   40.505   1.813   40.611
H   39.191   0.787   41.048
H   39.966   0.085   43.050
H   40.521   1.618   43.498
H   42.424   0.931   41.467
H   42.771   -1.534   42.612
H   42.419   -1.161   40.944
H   41.076   -1.524   42.040
H   43.900   0.278   43.440
H   42.475   0.708   44.429
H   42.675   2.966   44.366
H   42.826   2.853   42.631
H   45.374   1.897   43.512
H   44.868   2.990   44.740
H   44.561   3.848   41.959
H   46.818   3.143   41.787
H   47.228   3.811   43.372
H   47.040   4.912   41.990
H   45.665   5.703   44.033
H   43.968   5.198   44.118
H   43.320   6.562   42.467
H   44.564   6.061   41.417
H   45.935   7.900   41.968
H   45.463   7.942   43.651
H   44.795   9.926   42.329
H   43.028   8.551   44.022
H   41.979   9.311   42.839
H   43.084   10.277   43.820
H   43.669   9.853   40.358
H   42.314   8.846   40.926
H   43.769   8.125   40.279

