%nproc=24
%mem=50gb
#p ZINDO=(nstates=5)

step_251_chromophore_27 ZINDO

0 1
Mg   -5.361   24.760   27.025
C   -3.642   26.638   29.436
C   -6.400   22.659   29.547
C   -6.945   22.991   24.733
C   -4.075   26.918   24.569
N   -5.093   24.762   29.224
C   -4.334   25.604   30.037
C   -4.642   25.430   31.576
C   -5.370   24.101   31.517
C   -5.660   23.803   29.988
C   -4.437   22.921   32.054
C   -5.658   26.613   31.902
C   -5.451   27.388   33.277
C   -4.924   26.437   34.321
O   -3.800   26.569   34.905
O   -5.868   25.467   34.561
N   -6.358   23.027   27.118
C   -6.680   22.313   28.193
C   -7.484   21.163   27.874
C   -7.818   21.318   26.514
C   -6.971   22.472   26.029
C   -7.924   20.111   28.825
C   -8.852   20.604   25.668
O   -9.212   21.015   24.559
C   -9.418   19.258   26.129
N   -5.438   24.925   24.911
C   -6.263   24.055   24.238
C   -6.352   24.504   22.781
C   -5.509   25.870   22.729
C   -5.010   25.977   24.146
C   -5.905   23.334   21.835
C   -6.233   27.107   22.221
C   -5.479   27.850   21.074
N   -4.100   26.415   26.998
C   -3.637   27.199   25.895
C   -2.755   28.215   26.347
C   -2.743   28.017   27.738
C   -3.531   26.890   28.051
C   -2.036   29.289   25.596
C   -2.229   28.504   28.978
O   -1.467   29.400   29.256
C   -2.892   27.683   30.120
C   -1.839   27.245   31.072
O   -0.969   26.398   30.890
O   -2.046   27.913   32.211
C   -1.184   27.588   33.328
C   -5.528   24.437   35.548
C   -6.483   23.271   35.644
C   -7.018   22.695   36.770
C   -6.542   22.949   38.167
C   -7.908   21.526   36.692
C   -9.347   21.925   36.970
C   -9.953   21.057   38.097
C   -11.208   20.353   37.574
C   -12.365   21.306   37.605
C   -11.439   19.150   38.485
C   -10.971   17.828   37.784
C   -10.521   16.733   38.750
C   -9.062   16.296   38.458
C   -8.077   17.508   38.828
C   -8.675   14.933   39.123
C   -7.933   14.032   38.064
C   -6.566   13.598   38.537
C   -5.373   14.390   37.821
C   -4.783   13.712   36.497
C   -4.290   14.715   38.825
H   -6.908   22.000   30.254
H   -7.482   22.357   24.023
H   -3.703   27.649   23.848
H   -3.685   25.589   32.072
H   -6.313   24.164   32.059
H   -3.445   23.272   32.339
H   -4.337   22.178   31.263
H   -4.991   22.512   32.899
H   -6.698   26.290   31.938
H   -5.597   27.303   31.060
H   -6.413   27.656   33.714
H   -4.982   28.360   33.122
H   -9.004   20.222   28.931
H   -7.479   20.252   29.809
H   -7.700   19.100   28.486
H   -9.796   18.886   25.177
H   -10.182   19.340   26.903
H   -8.704   18.494   26.436
H   -7.353   24.740   22.420
H   -4.639   25.710   22.092
H   -6.652   23.297   21.042
H   -5.785   22.376   22.341
H   -5.041   23.620   21.234
H   -6.468   27.838   22.994
H   -7.109   26.705   21.710
H   -4.608   27.279   20.752
H   -5.006   28.765   21.430
H   -6.130   28.019   20.216
H   -2.853   29.978   25.380
H   -1.553   28.804   24.748
H   -1.322   29.827   26.218
H   -3.477   28.433   30.654
H   -0.139   27.681   33.031
H   -1.238   26.568   33.710
H   -1.417   28.312   34.109
H   -5.489   25.020   36.468
H   -4.514   24.092   35.350
H   -6.914   22.978   34.687
H   -6.142   23.962   38.199
H   -5.787   22.227   38.478
H   -7.296   22.899   38.953
H   -7.483   20.639   37.161
H   -7.966   21.226   35.646
H   -9.913   21.832   36.043
H   -9.341   22.987   37.218
H   -10.300   21.629   38.958
H   -9.275   20.279   38.448
H   -11.195   20.046   36.528
H   -12.826   21.424   36.624
H   -12.117   22.350   37.799
H   -13.078   21.021   38.379
H   -12.461   19.118   38.862
H   -10.846   19.177   39.400
H   -10.166   18.060   37.087
H   -11.800   17.434   37.196
H   -11.231   15.909   38.677
H   -10.591   17.090   39.777
H   -9.009   16.201   37.374
H   -7.344   17.043   39.487
H   -8.654   18.182   39.461
H   -7.646   17.939   37.924
H   -9.629   14.478   39.386
H   -8.157   15.260   40.025
H   -7.834   14.512   37.090
H   -8.572   13.179   37.836
H   -6.394   12.563   38.243
H   -6.368   13.643   39.608
H   -5.798   15.371   37.608
H   -4.955   14.287   35.587
H   -5.265   12.737   36.424
H   -3.697   13.639   36.549
H   -4.390   14.102   39.721
H   -4.346   15.778   39.061
H   -3.232   14.649   38.571

