%nproc=24
%mem=75GB
#p wB97XD/Def2SVP td=(nstates=5)

step_151_chromophore_16 TDDFT with wB97XD functional

0 1
Mg   40.711   41.113   26.682
C   39.836   43.512   29.264
C   41.318   38.823   29.209
C   41.674   39.087   24.429
C   40.214   43.701   24.419
N   40.617   41.273   29.028
C   40.130   42.219   29.798
C   40.078   41.804   31.272
C   40.764   40.417   31.232
C   40.940   40.085   29.734
C   42.000   40.231   32.245
C   38.615   41.900   31.873
C   38.351   41.274   33.215
C   38.025   42.322   34.353
O   37.083   43.111   34.427
O   39.037   42.228   35.223
N   41.461   39.256   26.821
C   41.473   38.417   27.868
C   41.983   37.127   27.426
C   42.145   37.190   26.013
C   41.801   38.583   25.735
C   42.249   35.982   28.306
C   42.584   36.093   25.007
O   42.729   36.288   23.822
C   42.795   34.677   25.433
N   41.080   41.462   24.725
C   41.363   40.327   23.970
C   41.173   40.650   22.469
C   40.574   42.100   22.470
C   40.563   42.398   23.936
C   42.357   40.456   21.552
C   39.197   42.283   21.766
C   37.855   42.217   22.580
N   40.169   43.204   26.828
C   40.013   44.131   25.808
C   39.632   45.399   26.333
C   39.583   45.214   27.732
C   39.840   43.853   27.901
C   39.512   46.598   25.524
C   39.358   45.878   28.961
O   39.217   47.057   29.304
C   39.485   44.745   30.034
C   40.627   45.060   30.895
O   41.683   45.394   30.480
O   40.265   45.016   32.264
C   41.359   45.303   33.222
C   39.077   43.227   36.323
C   38.482   42.555   37.648
C   37.636   43.099   38.592
C   37.210   44.566   38.766
C   37.014   42.231   39.558
C   37.859   41.638   40.666
C   37.441   40.259   41.147
C   38.783   39.443   41.405
C   38.885   38.380   40.296
C   38.885   38.742   42.797
C   39.076   39.841   43.853
C   40.274   39.504   44.754
C   39.812   38.952   46.145
C   41.114   38.895   47.150
C   39.034   37.639   46.110
C   37.682   37.677   46.823
C   36.455   36.929   46.173
C   35.158   37.717   46.304
C   34.180   37.357   45.148
C   34.420   37.446   47.669
H   41.444   38.064   29.983
H   41.752   38.383   23.597
H   40.200   44.547   23.729
H   40.734   42.457   31.848
H   40.043   39.667   31.555
H   42.653   39.473   31.812
H   41.758   39.807   33.220
H   42.382   41.212   32.527
H   38.055   41.489   31.032
H   38.314   42.945   31.949
H   39.214   40.745   33.620
H   37.640   40.456   33.105
H   43.289   35.674   28.198
H   41.670   35.081   28.104
H   42.055   36.028   29.377
H   43.693   34.594   26.045
H   42.860   34.060   24.537
H   41.962   34.171   25.923
H   40.358   40.005   22.140
H   41.260   42.797   21.988
H   43.236   40.250   22.163
H   42.560   41.339   20.946
H   42.179   39.660   20.829
H   39.156   41.491   21.017
H   39.165   43.222   21.213
H   37.404   43.209   22.611
H   38.164   41.949   23.591
H   37.224   41.476   22.089
H   40.012   46.578   24.556
H   40.101   47.384   25.996
H   38.435   46.746   25.434
H   38.579   44.800   30.637
H   41.381   46.386   33.343
H   42.314   44.947   32.836
H   41.244   44.732   34.143
H   38.481   44.115   36.115
H   40.098   43.560   36.506
H   38.638   41.476   37.643
H   37.400   44.817   39.810
H   36.148   44.700   38.559
H   37.625   45.322   38.100
H   36.541   41.487   38.916
H   36.047   42.596   39.905
H   37.583   42.330   41.461
H   38.907   41.865   40.473
H   36.826   39.749   40.406
H   36.929   40.333   42.107
H   39.649   40.096   41.298
H   38.724   37.380   40.697
H   39.852   38.456   39.799
H   38.158   38.453   39.487
H   39.646   37.962   42.785
H   38.041   38.093   43.029
H   38.185   39.823   44.481
H   39.286   40.855   43.513
H   40.870   40.399   44.933
H   40.936   38.786   44.270
H   39.226   39.775   46.555
H   40.868   39.307   48.129
H   41.983   39.419   46.754
H   41.386   37.846   47.269
H   39.536   36.885   46.717
H   38.943   37.357   45.061
H   37.487   38.742   46.951
H   38.049   37.340   47.792
H   36.309   36.000   46.724
H   36.649   36.823   45.105
H   35.345   38.778   46.140
H   34.286   36.362   44.715
H   34.541   37.997   44.342
H   33.108   37.521   45.253
H   34.402   38.380   48.231
H   35.029   36.773   48.273
H   33.459   36.942   47.561

