%nproc=24
%mem=75GB
#p blyp/Def2SVP td=(nstates=5)

step_501_chromophore_15 TDDFT with blyp functional

0 1
Mg   47.339   34.918   28.078
C   45.688   33.198   30.683
C   48.101   37.449   30.244
C   48.243   36.724   25.472
C   46.072   32.477   25.837
N   47.020   35.198   30.259
C   46.360   34.385   31.060
C   46.671   34.774   32.494
C   47.033   36.305   32.381
C   47.412   36.358   30.854
C   45.842   37.215   32.868
C   47.888   34.004   33.068
C   47.983   33.948   34.656
C   46.956   34.643   35.554
O   45.881   34.180   35.936
O   47.286   35.923   35.823
N   48.243   36.703   27.907
C   48.569   37.630   28.930
C   49.303   38.760   28.314
C   49.267   38.577   26.885
C   48.570   37.294   26.649
C   49.938   39.858   29.092
C   49.831   39.426   25.680
O   49.788   39.065   24.496
C   50.327   40.815   25.960
N   47.078   34.693   25.917
C   47.585   35.544   25.065
C   47.430   35.172   23.617
C   46.710   33.781   23.712
C   46.686   33.568   25.259
C   46.768   36.292   22.809
C   47.434   32.639   23.010
C   46.539   31.609   22.232
N   46.165   33.095   28.162
C   45.774   32.192   27.154
C   45.182   31.053   27.767
C   44.952   31.446   29.124
C   45.597   32.641   29.319
C   44.921   29.734   27.098
C   44.483   31.087   30.484
O   43.896   30.098   30.871
C   44.738   32.349   31.438
C   44.992   31.907   32.842
O   45.890   31.215   33.222
O   43.963   32.328   33.705
C   43.673   31.456   34.863
C   46.440   36.686   36.742
C   47.452   37.509   37.549
C   47.120   38.475   38.373
C   45.751   38.670   38.977
C   48.113   39.376   38.993
C   47.955   40.734   38.288
C   48.138   41.857   39.393
C   49.198   42.957   38.978
C   50.666   42.589   39.348
C   48.814   44.294   39.697
C   47.945   45.094   38.764
C   47.907   46.546   39.368
C   46.828   47.435   38.807
C   47.171   48.931   39.003
C   45.474   47.156   39.503
C   44.435   46.433   38.660
C   43.278   45.825   39.501
C   41.907   46.172   38.962
C   40.752   46.537   39.935
C   41.292   45.160   37.837
H   48.208   38.371   30.820
H   48.631   37.171   24.555
H   45.763   31.706   25.128
H   45.786   34.436   33.033
H   47.910   36.555   32.979
H   44.996   36.599   33.171
H   45.506   37.701   31.952
H   46.077   37.861   33.714
H   48.752   34.550   32.687
H   47.866   33.004   32.635
H   48.978   34.335   34.881
H   48.013   32.884   34.892
H   50.022   39.763   30.174
H   49.404   40.802   28.987
H   50.953   39.899   28.696
H   51.376   40.862   26.252
H   49.629   41.092   26.751
H   50.119   41.393   25.060
H   48.468   35.047   23.309
H   45.691   33.783   23.327
H   46.136   36.952   23.404
H   46.113   35.783   22.103
H   47.491   36.915   22.282
H   48.020   32.052   23.717
H   48.214   33.139   22.436
H   45.479   31.780   22.419
H   46.815   30.642   22.652
H   46.654   31.523   21.151
H   44.415   29.990   26.167
H   44.280   29.057   27.663
H   45.866   29.261   26.829
H   43.796   32.882   31.563
H   43.909   32.016   35.768
H   44.228   30.518   34.825
H   42.603   31.256   34.807
H   45.971   36.064   37.505
H   45.734   37.232   36.117
H   48.492   37.522   37.222
H   45.228   39.465   38.445
H   45.884   38.778   40.053
H   45.033   37.851   38.928
H   49.121   38.994   38.834
H   47.809   39.382   40.039
H   46.986   40.963   37.846
H   48.717   40.777   37.509
H   48.416   41.476   40.375
H   47.143   42.263   39.575
H   49.226   43.005   37.889
H   51.326   42.778   38.501
H   50.756   41.565   39.712
H   51.087   43.184   40.158
H   49.738   44.825   39.924
H   48.217   44.108   40.589
H   46.905   44.772   38.720
H   48.395   45.127   37.772
H   48.789   46.941   38.865
H   47.966   46.687   40.447
H   46.750   47.283   37.730
H   46.426   49.409   39.640
H   47.134   49.433   38.036
H   48.184   48.990   39.401
H   44.978   48.044   39.896
H   45.701   46.519   40.358
H   45.014   45.601   38.261
H   44.004   47.030   37.855
H   43.236   46.178   40.531
H   43.417   44.745   39.544
H   42.019   47.048   38.323
H   39.763   46.124   39.738
H   40.586   47.612   39.870
H   41.073   46.382   40.965
H   41.019   45.667   36.912
H   40.443   44.553   38.152
H   42.021   44.397   37.566

