%nproc=24
%mem=75GB
#p PBE1PBE/Def2SVP td=(nstates=5)

step_451_chromophore_13 TDDFT with PBE1PBE functional

0 1
Mg   47.596   24.785   28.245
C   48.318   26.968   30.959
C   46.959   22.372   30.637
C   47.634   22.568   25.828
C   48.671   27.261   26.150
N   47.511   24.780   30.455
C   47.777   25.787   31.357
C   47.432   25.362   32.800
C   47.401   23.769   32.648
C   47.239   23.608   31.125
C   48.697   22.936   32.997
C   46.177   26.054   33.353
C   46.308   26.807   34.692
C   45.407   26.329   35.927
O   44.257   25.871   35.812
O   46.011   26.717   37.161
N   47.157   22.795   28.195
C   46.959   21.955   29.248
C   46.578   20.598   28.786
C   46.825   20.622   27.383
C   47.249   22.000   27.104
C   45.928   19.559   29.595
C   46.704   19.501   26.325
O   47.074   19.634   25.169
C   46.184   18.181   26.780
N   48.183   24.915   26.282
C   48.054   23.836   25.483
C   48.286   24.222   24.011
C   48.279   25.832   24.006
C   48.421   26.042   25.548
C   49.553   23.568   23.300
C   46.984   26.581   23.388
C   45.565   26.166   23.801
N   48.349   26.781   28.447
C   48.721   27.717   27.517
C   49.042   28.962   28.138
C   48.932   28.709   29.573
C   48.492   27.356   29.651
C   49.410   30.212   27.397
C   49.023   29.313   30.847
O   49.233   30.393   31.236
C   48.758   28.132   31.783
C   49.921   27.963   32.694
O   51.046   27.657   32.351
O   49.517   28.092   34.002
C   50.576   27.729   34.921
C   45.192   26.793   38.317
C   45.309   25.637   39.278
C   44.658   25.452   40.460
C   43.745   26.363   41.142
C   44.787   24.036   41.029
C   43.632   23.192   40.556
C   42.697   22.628   41.692
C   41.231   22.170   41.484
C   40.976   21.362   40.114
C   40.228   23.386   41.375
C   39.425   23.560   42.697
C   40.143   24.571   43.589
C   40.224   24.133   45.099
C   38.876   24.180   45.797
C   41.103   25.015   45.911
C   42.140   24.205   46.786
C   43.618   24.166   46.342
C   44.102   22.752   45.905
C   44.794   22.170   47.152
C   45.176   22.922   44.763
H   46.856   21.557   31.355
H   47.590   21.832   25.022
H   48.949   27.947   25.347
H   48.346   25.525   33.371
H   46.507   23.358   33.117
H   48.369   22.306   33.824
H   49.429   23.654   33.367
H   49.084   22.292   32.207
H   45.314   25.414   33.535
H   45.821   26.768   32.610
H   46.034   27.858   34.598
H   47.363   26.701   34.945
H   46.536   18.657   29.658
H   44.933   19.344   29.205
H   45.758   19.861   30.628
H   46.557   17.754   27.711
H   46.541   17.503   26.005
H   45.103   18.050   26.735
H   47.436   23.979   23.373
H   49.071   26.364   23.481
H   50.314   24.305   23.043
H   49.233   23.073   22.383
H   49.950   22.740   23.887
H   46.935   26.457   22.306
H   47.164   27.636   23.597
H   45.055   25.445   23.162
H   44.944   26.991   24.151
H   45.692   25.468   24.628
H   50.472   30.184   27.154
H   49.244   30.955   28.176
H   48.857   30.356   26.468
H   47.883   28.257   32.421
H   50.591   26.639   34.927
H   50.461   28.090   35.943
H   51.502   28.203   34.595
H   44.158   26.748   37.976
H   45.298   27.778   38.770
H   45.942   24.824   38.922
H   44.104   26.932   41.999
H   42.887   25.802   41.514
H   43.390   27.008   40.338
H   44.944   24.116   42.105
H   45.696   23.613   40.602
H   44.078   22.386   39.974
H   42.901   23.763   39.983
H   42.633   23.315   42.536
H   43.212   21.776   42.136
H   41.115   21.552   42.374
H   40.634   20.368   40.401
H   41.878   21.078   39.573
H   40.225   21.797   39.455
H   39.456   23.287   40.611
H   40.805   24.289   41.178
H   39.461   22.600   43.213
H   38.446   23.911   42.371
H   39.492   25.445   43.586
H   41.134   24.832   43.217
H   40.718   23.164   45.032
H   38.631   23.118   45.779
H   38.185   24.806   45.233
H   38.907   24.444   46.854
H   40.651   25.724   46.606
H   41.628   25.625   45.175
H   41.775   23.225   47.094
H   42.182   24.835   47.674
H   44.186   24.563   47.183
H   43.818   24.851   45.518
H   43.306   22.150   45.467
H   45.664   21.550   46.935
H   44.068   21.489   47.596
H   45.155   22.838   47.935
H   44.690   22.538   43.866
H   46.113   22.400   44.955
H   45.492   23.947   44.569

