%nproc=24
%mem=50gb
#p ZINDO=(nstates=5)

step_1551_chromophore_14 ZINDO

0 1
Mg   46.549   44.709   43.516
C   43.185   43.748   43.515
C   47.337   41.364   43.367
C   49.522   45.612   42.394
C   45.508   48.071   43.450
N   45.387   42.853   43.445
C   44.054   42.686   43.490
C   43.611   41.157   43.494
C   44.984   40.489   43.819
C   45.949   41.635   43.629
C   45.099   39.746   45.172
C   42.915   40.656   42.224
C   43.311   41.317   40.864
C   43.055   40.718   39.504
O   42.934   39.544   39.214
O   43.230   41.668   38.519
N   48.199   43.603   42.991
C   48.357   42.254   42.947
C   49.726   41.954   42.647
C   50.337   43.130   42.564
C   49.370   44.207   42.604
C   50.230   40.614   42.815
C   51.898   43.292   42.391
O   52.625   42.317   42.315
C   52.552   44.726   42.527
N   47.304   46.527   43.047
C   48.618   46.633   42.698
C   49.139   48.106   42.512
C   47.865   48.921   42.859
C   46.830   47.803   43.175
C   50.444   48.447   43.289
C   47.548   49.883   41.633
C   46.677   51.148   41.879
N   44.704   45.744   43.577
C   44.437   47.079   43.684
C   43.033   47.286   43.817
C   42.506   45.984   43.755
C   43.552   45.120   43.551
C   42.359   48.594   43.759
C   41.281   45.213   43.621
O   40.048   45.490   43.624
C   41.667   43.748   43.461
C   40.993   42.978   44.596
O   40.189   42.079   44.392
O   41.541   43.208   45.785
C   41.024   42.372   46.816
C   43.136   41.308   37.127
C   44.085   42.081   36.256
C   45.316   41.862   35.724
C   46.072   40.565   35.906
C   45.872   42.965   34.794
C   45.692   42.683   33.295
C   44.900   43.688   32.430
C   44.974   43.538   30.856
C   45.077   44.964   30.200
C   43.696   42.821   30.258
C   44.003   41.959   28.972
C   43.241   42.314   27.683
C   44.108   43.196   26.709
C   43.430   44.470   26.207
C   44.549   42.231   25.602
C   45.993   42.645   25.128
C   46.271   42.154   23.707
C   46.160   43.251   22.659
C   45.378   42.779   21.388
C   47.477   43.895   22.138
H   47.493   40.290   43.489
H   50.427   46.068   41.987
H   45.256   49.133   43.459
H   42.960   41.052   44.362
H   45.112   39.750   43.029
H   45.450   38.734   44.967
H   44.157   39.694   45.718
H   45.805   40.133   45.907
H   41.867   40.773   42.502
H   43.209   39.620   42.056
H   44.360   41.611   40.848
H   42.890   42.322   40.843
H   50.752   40.439   41.874
H   49.431   39.896   42.998
H   51.008   40.507   43.571
H   52.428   45.178   43.511
H   52.087   45.347   41.762
H   53.625   44.600   42.378
H   49.470   48.229   41.481
H   47.935   49.394   43.839
H   50.254   49.313   43.924
H   51.363   48.593   42.722
H   50.630   47.664   44.024
H   47.026   49.394   40.810
H   48.551   50.210   41.359
H   47.283   52.044   42.010
H   45.942   51.047   42.678
H   46.204   51.306   40.910
H   42.704   49.155   42.891
H   42.456   49.117   44.710
H   41.279   48.453   43.747
H   41.289   43.324   42.530
H   41.412   42.857   47.712
H   41.451   41.371   46.748
H   39.938   42.436   46.892
H   42.195   41.685   36.724
H   43.118   40.230   36.968
H   43.651   42.992   35.845
H   47.013   40.737   36.429
H   46.256   40.243   34.881
H   45.404   39.947   36.507
H   46.923   42.992   35.079
H   45.512   43.958   35.064
H   45.313   41.674   33.140
H   46.702   42.705   32.886
H   45.338   44.635   32.747
H   43.879   43.777   32.801
H   45.789   42.897   30.519
H   45.879   44.677   29.520
H   45.279   45.710   30.969
H   44.154   45.184   29.665
H   42.950   43.541   29.923
H   43.259   42.141   30.989
H   43.714   40.935   29.206
H   45.073   41.864   28.787
H   42.328   42.872   27.891
H   42.829   41.417   27.221
H   45.001   43.501   27.255
H   43.305   44.411   25.126
H   44.001   45.380   26.393
H   42.394   44.661   26.487
H   43.876   42.307   24.748
H   44.689   41.234   26.022
H   46.713   42.197   25.813
H   45.995   43.733   25.058
H   45.515   41.413   23.450
H   47.241   41.657   23.717
H   45.570   44.062   23.087
H   44.380   43.206   21.482
H   45.308   41.698   21.267
H   45.886   43.201   20.521
H   48.337   43.372   22.557
H   47.623   44.894   22.548
H   47.626   44.047   21.069

