%nproc=24
%mem=75GB
#p cam-b3lyp/Def2SVP td=(nstates=5)

step_1051_chromophore_14 TDDFT with cam-b3lyp functional

0 1
Mg   46.892   46.137   43.993
C   43.569   44.963   43.571
C   47.935   42.878   43.132
C   50.085   47.409   43.662
C   45.611   49.331   44.444
N   45.834   44.126   43.401
C   44.475   43.895   43.389
C   44.199   42.421   43.067
C   45.626   41.820   43.028
C   46.516   43.031   43.260
C   45.858   40.687   44.067
C   43.381   42.069   41.775
C   43.383   43.155   40.656
C   43.262   42.810   39.218
O   42.340   42.198   38.696
O   44.428   43.033   38.549
N   48.728   45.319   43.403
C   48.933   43.945   43.187
C   50.347   43.722   42.923
C   50.998   45.009   42.993
C   49.960   46.013   43.351
C   50.992   42.332   42.674
C   52.419   45.221   42.695
O   53.125   44.292   42.352
C   53.048   46.549   42.776
N   47.741   48.073   43.952
C   49.079   48.321   43.964
C   49.304   49.815   43.955
C   47.941   50.442   44.286
C   47.051   49.183   44.223
C   50.565   50.390   44.792
C   47.535   51.683   43.406
C   46.955   52.815   44.292
N   44.984   46.995   43.977
C   44.566   48.340   44.241
C   43.120   48.396   44.233
C   42.748   47.032   43.988
C   43.891   46.242   43.849
C   42.338   49.655   44.479
C   41.571   46.150   43.855
O   40.345   46.381   43.975
C   42.098   44.806   43.522
C   41.606   43.948   44.612
O   40.959   42.921   44.467
O   42.157   44.359   45.848
C   41.764   43.512   46.970
C   44.410   42.634   37.091
C   45.519   43.154   36.144
C   46.173   42.490   35.156
C   45.794   41.059   34.858
C   47.206   43.189   34.386
C   46.944   43.251   32.873
C   45.532   43.838   32.477
C   45.431   43.945   30.991
C   44.876   45.322   30.489
C   44.531   42.757   30.430
C   45.185   42.224   29.108
C   44.227   42.371   27.961
C   44.921   43.211   26.747
C   44.372   44.661   26.668
C   44.729   42.582   25.361
C   45.891   42.960   24.376
C   46.898   41.874   24.212
C   46.826   41.123   22.860
C   46.282   39.715   23.089
C   48.233   41.069   22.243
H   48.309   41.910   42.791
H   51.083   47.846   43.586
H   45.305   50.318   44.797
H   43.596   42.005   43.873
H   45.896   41.405   42.057
H   46.905   40.766   44.360
H   45.703   39.736   43.557
H   45.169   40.775   44.907
H   42.328   41.973   42.037
H   43.839   41.201   41.301
H   44.248   43.766   40.913
H   42.510   43.795   40.784
H   51.374   42.238   41.657
H   50.259   41.527   42.718
H   51.705   42.144   43.476
H   52.782   47.027   43.719
H   52.727   47.199   41.962
H   54.123   46.368   42.770
H   49.510   49.991   42.899
H   47.836   50.749   45.326
H   50.956   49.536   45.344
H   50.224   51.097   45.549
H   51.342   50.795   44.143
H   46.728   51.435   42.716
H   48.383   52.033   42.818
H   47.697   53.607   44.188
H   46.676   52.564   45.316
H   46.037   53.183   43.834
H   42.789   50.289   45.242
H   41.322   49.367   44.748
H   42.212   50.205   43.546
H   41.740   44.381   42.584
H   42.298   43.787   47.880
H   41.656   42.463   46.694
H   40.790   43.874   47.299
H   43.505   43.068   36.665
H   44.431   41.546   37.039
H   45.888   44.139   36.429
H   46.474   40.596   34.143
H   44.742   41.089   34.576
H   45.948   40.630   35.848
H   48.151   42.708   34.637
H   47.317   44.210   34.752
H   47.197   42.303   32.398
H   47.701   43.950   32.515
H   45.556   44.847   32.889
H   44.793   43.208   32.973
H   46.419   43.870   30.537
H   44.635   45.973   31.329
H   44.060   45.230   29.772
H   45.591   45.870   29.875
H   43.517   43.148   30.344
H   44.561   41.839   31.018
H   45.255   41.148   29.266
H   46.218   42.526   28.932
H   43.347   42.935   28.271
H   43.806   41.430   27.606
H   45.986   43.381   26.900
H   45.182   45.374   26.822
H   43.658   44.910   27.453
H   43.900   44.859   25.705
H   43.873   42.983   24.819
H   44.515   41.515   25.432
H   46.324   43.901   24.718
H   45.465   43.143   23.390
H   46.990   41.167   25.037
H   47.888   42.329   24.270
H   46.234   41.605   22.082
H   46.865   38.909   22.644
H   45.324   39.517   22.609
H   46.034   39.532   24.134
H   48.090   41.108   21.163
H   48.737   40.134   22.489
H   48.915   41.868   22.533

