%nproc=24
%mem=75GB
#p PBE1PBE/Def2SVP td=(nstates=5)

step_51_chromophore_14 TDDFT with PBE1PBE functional

0 1
Mg   46.675   44.889   43.956
C   43.311   44.711   42.909
C   47.113   41.707   42.664
C   50.022   45.415   43.917
C   46.232   48.425   44.205
N   45.312   43.328   43.063
C   44.043   43.483   42.645
C   43.387   42.230   41.960
C   44.551   41.191   42.234
C   45.754   42.101   42.743
C   44.143   40.133   43.268
C   43.177   42.514   40.403
C   41.858   41.915   39.910
C   41.945   41.118   38.622
O   41.572   39.970   38.481
O   42.486   41.831   37.635
N   48.307   43.676   43.468
C   48.323   42.387   43.024
C   49.680   41.875   42.895
C   50.521   42.880   43.442
C   49.621   44.040   43.645
C   50.168   40.515   42.488
C   52.027   42.854   43.624
O   52.637   41.836   43.361
C   52.837   43.993   44.117
N   47.953   46.755   43.942
C   49.273   46.566   44.109
C   49.948   47.917   44.532
C   48.712   48.968   44.458
C   47.588   48.032   44.145
C   50.649   47.812   45.933
C   48.866   50.102   43.327
C   49.158   51.544   43.854
N   45.136   46.261   43.806
C   45.093   47.600   43.977
C   43.725   48.135   44.003
C   42.982   46.996   43.573
C   43.874   45.879   43.435
C   43.303   49.563   44.362
C   41.684   46.525   43.284
O   40.544   47.082   43.275
C   41.856   45.025   42.772
C   40.956   44.146   43.602
O   39.795   43.906   43.377
O   41.599   43.712   44.709
C   40.734   43.058   45.750
C   42.477   41.222   36.271
C   43.787   41.695   35.534
C   44.880   40.999   35.134
C   45.240   39.560   35.436
C   45.884   41.826   34.510
C   45.887   42.175   33.012
C   45.276   43.615   32.689
C   45.491   44.059   31.143
C   45.576   45.554   31.004
C   44.302   43.370   30.313
C   44.871   42.520   29.135
C   43.896   42.520   27.963
C   44.442   43.187   26.701
C   43.412   44.088   25.994
C   44.942   42.124   25.684
C   46.067   42.752   24.882
C   46.415   41.900   23.576
C   47.106   42.804   22.564
C   46.885   42.332   21.110
C   48.560   42.908   22.999
H   47.181   40.665   42.342
H   51.054   45.724   44.099
H   46.039   49.453   44.517
H   42.417   41.997   42.400
H   44.900   40.730   41.310
H   43.117   40.410   43.511
H   44.719   40.019   44.186
H   44.305   39.248   42.652
H   44.009   42.088   39.842
H   43.243   43.591   40.242
H   41.163   42.754   39.872
H   41.496   41.144   40.590
H   49.288   40.028   42.068
H   50.542   39.916   43.319
H   50.621   40.680   41.511
H   52.451   44.453   45.027
H   53.016   44.735   43.339
H   53.844   43.599   44.254
H   50.740   48.080   43.801
H   48.493   49.528   45.367
H   50.361   46.913   46.477
H   50.543   48.766   46.450
H   51.666   47.540   45.651
H   47.952   50.226   42.746
H   49.720   49.882   42.687
H   48.428   52.211   43.397
H   50.161   51.870   43.578
H   48.984   51.748   44.910
H   43.869   50.166   43.652
H   43.682   49.797   45.357
H   42.226   49.606   44.200
H   41.615   45.062   41.710
H   41.404   42.785   46.565
H   40.289   42.112   45.443
H   39.922   43.759   45.940
H   41.754   41.651   35.578
H   42.654   40.148   36.210
H   43.645   42.722   35.198
H   45.400   39.041   34.491
H   44.392   38.989   35.815
H   46.201   39.384   35.919
H   46.866   41.355   34.534
H   46.005   42.803   34.977
H   45.120   41.558   32.545
H   46.851   42.060   32.516
H   45.649   44.413   33.331
H   44.202   43.523   32.852
H   46.424   43.653   30.752
H   45.742   45.917   32.019
H   44.612   45.891   30.625
H   46.487   45.767   30.444
H   43.665   44.159   29.913
H   43.691   42.723   30.942
H   44.905   41.510   29.545
H   45.909   42.752   28.899
H   43.040   43.135   28.242
H   43.579   41.485   27.830
H   45.307   43.778   27.001
H   43.990   45.008   25.909
H   42.544   44.257   26.631
H   43.192   43.714   24.994
H   44.169   41.729   25.026
H   45.346   41.225   26.149
H   46.886   42.910   25.583
H   45.700   43.732   24.575
H   45.577   41.388   23.104
H   47.120   41.189   24.006
H   46.667   43.792   22.705
H   47.642   41.609   20.809
H   46.932   43.222   20.482
H   45.979   41.738   20.990
H   48.611   43.849   23.545
H   49.248   42.858   22.155
H   48.854   42.115   23.687

