%nproc=24
%mem=75GB
#p cam-b3lyp/Def2SVP td=(nstates=5)

step_1051_chromophore_8 TDDFT with cam-b3lyp functional

0 1
Mg   44.419   2.286   47.239
C   42.314   5.034   46.787
C   41.386   0.303   47.181
C   46.131   -0.638   47.188
C   47.173   4.189   46.843
N   42.140   2.597   46.861
C   41.552   3.852   46.766
C   40.006   3.800   46.728
C   39.779   2.324   47.113
C   41.170   1.646   46.990
C   39.206   2.152   48.521
C   39.439   4.117   45.371
C   38.421   5.346   45.324
C   38.493   6.236   44.093
O   38.758   7.397   44.016
O   38.368   5.412   42.953
N   43.794   0.136   47.208
C   42.593   -0.471   47.176
C   42.731   -1.903   47.089
C   44.085   -2.173   47.268
C   44.782   -0.868   47.211
C   41.572   -2.875   46.878
C   44.584   -3.563   47.436
O   43.849   -4.548   47.428
C   45.978   -3.821   47.595
N   46.350   1.856   47.109
C   46.870   0.564   47.217
C   48.380   0.579   47.194
C   48.733   2.094   47.270
C   47.353   2.749   47.002
C   49.212   -0.303   48.272
C   49.839   2.592   46.284
C   50.798   3.705   46.830
N   44.738   4.186   46.773
C   45.935   4.899   46.784
C   45.614   6.319   46.622
C   44.203   6.357   46.688
C   43.729   5.065   46.751
C   46.485   7.480   46.357
C   43.091   7.310   46.604
O   43.074   8.517   46.490
C   41.798   6.410   46.766
C   41.151   6.827   48.091
O   41.221   6.319   49.222
O   40.296   7.839   47.827
C   39.389   8.257   48.885
C   38.463   6.144   41.605
C   39.719   5.835   40.731
C   39.835   5.876   39.380
C   38.720   6.252   38.452
C   41.122   5.573   38.744
C   41.139   4.162   38.154
C   42.390   3.405   38.335
C   43.320   3.363   37.053
C   44.172   2.050   37.046
C   44.114   4.659   36.925
C   44.364   5.154   35.521
C   45.900   4.978   35.187
C   46.144   4.148   33.879
C   47.565   3.455   33.679
C   45.851   5.045   32.629
C   45.246   4.306   31.357
C   43.943   4.979   30.806
C   43.836   5.107   29.275
C   42.460   4.629   28.866
C   44.278   6.449   28.718
H   40.516   -0.331   47.364
H   46.712   -1.560   47.117
H   48.090   4.775   46.751
H   39.599   4.483   47.474
H   39.176   1.823   46.356
H   38.337   2.803   48.617
H   39.852   2.292   49.388
H   38.910   1.125   48.734
H   38.821   3.314   44.969
H   40.312   4.265   44.735
H   38.193   5.815   46.281
H   37.434   4.885   45.270
H   41.501   -3.510   47.761
H   41.733   -3.441   45.960
H   40.607   -2.381   46.772
H   46.474   -3.227   48.363
H   46.285   -3.720   46.554
H   46.072   -4.879   47.836
H   48.535   0.152   46.203
H   48.940   2.416   48.290
H   50.284   -0.114   48.223
H   48.999   -1.328   47.968
H   48.791   0.084   49.200
H   49.401   2.939   45.349
H   50.479   1.753   46.011
H   50.787   4.503   46.087
H   51.791   3.310   47.045
H   50.313   4.102   47.722
H   46.241   8.266   47.072
H   46.186   7.908   45.400
H   47.558   7.288   46.361
H   41.164   6.628   45.907
H   39.573   7.892   49.896
H   38.441   7.802   48.600
H   39.187   9.326   48.956
H   38.365   7.228   41.653
H   37.635   5.761   41.009
H   40.663   5.753   41.270
H   38.875   7.324   38.329
H   37.751   5.997   38.882
H   38.872   5.694   37.528
H   42.027   5.821   39.299
H   41.154   6.345   37.976
H   41.097   4.385   37.088
H   40.271   3.569   38.443
H   42.062   2.473   38.795
H   42.963   3.994   39.052
H   42.651   3.265   36.198
H   45.217   2.251   36.812
H   43.700   1.362   36.345
H   44.143   1.665   38.065
H   45.016   4.667   37.537
H   43.385   5.405   37.243
H   44.099   6.211   35.522
H   43.688   4.652   34.829
H   46.437   4.370   35.915
H   46.402   5.945   35.143
H   45.391   3.364   33.952
H   47.995   3.399   32.679
H   47.574   2.428   34.043
H   48.294   3.978   34.299
H   46.820   5.320   32.212
H   45.365   5.981   32.903
H   44.946   3.285   31.594
H   45.974   4.294   30.546
H   44.005   6.039   31.052
H   43.094   4.701   31.431
H   44.591   4.424   28.885
H   41.724   5.367   29.183
H   42.236   3.639   29.264
H   42.337   4.670   27.783
H   44.448   7.227   29.462
H   43.528   6.834   28.028
H   45.226   6.462   28.180

