%nproc=24
%mem=75GB
#p cam-b3lyp/Def2SVP td=(nstates=5)

step_1501_chromophore_24 TDDFT with cam-b3lyp functional

0 1
Mg   -0.152   43.434   25.745
C   2.098   42.828   28.376
C   -2.751   42.631   28.015
C   -2.256   43.114   23.180
C   2.503   43.644   23.542
N   -0.306   42.788   27.996
C   0.769   42.674   28.882
C   0.295   42.678   30.379
C   -1.220   42.407   30.182
C   -1.505   42.588   28.646
C   -1.781   41.057   30.703
C   0.685   44.059   31.015
C   1.060   44.064   32.504
C   0.758   42.878   33.352
O   1.314   41.773   33.335
O   -0.295   43.123   34.232
N   -2.146   43.108   25.652
C   -3.012   42.803   26.671
C   -4.385   42.584   26.109
C   -4.269   42.845   24.735
C   -2.842   43.004   24.494
C   -5.620   42.292   26.864
C   -5.369   42.888   23.682
O   -5.099   43.295   22.528
C   -6.836   42.445   23.889
N   0.077   43.804   23.568
C   -0.890   43.350   22.722
C   -0.360   43.315   21.231
C   1.168   43.656   21.430
C   1.242   43.666   22.996
C   -0.509   41.900   20.459
C   1.534   44.987   20.722
C   1.445   46.285   21.521
N   1.924   43.224   25.819
C   2.925   43.397   24.876
C   4.198   43.238   25.469
C   3.925   43.053   26.810
C   2.481   42.987   26.972
C   5.591   43.289   24.841
C   4.560   42.904   28.054
O   5.748   42.826   28.353
C   3.414   42.748   29.146
C   3.656   41.538   29.978
O   3.494   40.393   29.655
O   4.309   41.945   31.104
C   4.819   40.933   31.961
C   -0.746   42.135   35.197
C   -2.177   41.829   35.106
C   -2.962   41.082   35.952
C   -2.403   40.481   37.242
C   -4.409   40.856   35.660
C   -5.438   41.759   36.324
C   -6.374   42.482   35.273
C   -7.895   42.156   35.466
C   -8.670   43.170   34.666
C   -8.377   40.766   35.276
C   -8.938   40.190   36.621
C   -10.028   41.055   37.266
C   -11.381   40.323   37.437
C   -12.417   41.421   38.030
C   -11.341   39.096   38.361
C   -11.718   37.736   37.764
C   -13.265   37.696   37.671
C   -13.816   36.979   36.336
C   -14.244   37.979   35.283
C   -15.037   36.137   36.601
H   -3.555   42.480   28.738
H   -2.948   42.877   22.370
H   3.336   43.669   22.835
H   0.850   41.898   30.899
H   -1.856   43.160   30.647
H   -1.096   40.244   30.462
H   -2.794   40.819   30.378
H   -1.870   41.172   31.784
H   -0.156   44.720   30.805
H   1.553   44.454   30.487
H   0.474   44.861   32.961
H   2.095   44.387   32.612
H   -6.388   43.065   26.835
H   -5.412   42.195   27.930
H   -6.114   41.400   26.479
H   -7.300   43.282   24.410
H   -6.887   41.475   24.383
H   -7.441   42.334   22.989
H   -0.779   44.098   20.599
H   1.862   42.868   21.136
H   -0.866   41.053   21.045
H   0.465   41.672   20.027
H   -1.255   42.121   19.695
H   1.092   45.163   19.741
H   2.601   44.845   20.551
H   0.589   46.468   22.171
H   1.349   47.026   20.727
H   2.372   46.525   22.041
H   5.574   42.797   23.868
H   6.430   42.868   25.396
H   5.959   44.295   24.640
H   3.459   43.713   29.650
H   5.824   41.294   32.180
H   4.790   39.957   31.477
H   4.247   40.800   32.880
H   -0.481   42.594   36.150
H   -0.210   41.190   35.111
H   -2.696   42.194   34.219
H   -1.432   40.952   37.393
H   -2.362   39.392   37.237
H   -3.068   40.758   38.060
H   -4.603   39.867   36.077
H   -4.514   40.720   34.584
H   -4.982   42.616   36.820
H   -6.036   41.203   37.046
H   -6.018   42.283   34.262
H   -6.215   43.550   35.425
H   -8.111   42.444   36.495
H   -9.013   43.999   35.286
H   -9.615   42.717   34.365
H   -8.207   43.568   33.763
H   -7.475   40.172   35.127
H   -8.984   40.572   34.392
H   -8.181   39.960   37.371
H   -9.305   39.190   36.388
H   -10.268   41.867   36.580
H   -9.603   41.466   38.182
H   -11.791   40.062   36.462
H   -12.849   41.162   38.996
H   -13.143   41.502   37.221
H   -11.910   42.373   38.191
H   -11.939   39.220   39.264
H   -10.316   38.907   38.678
H   -11.341   36.939   38.405
H   -11.150   37.631   36.840
H   -13.634   38.715   37.785
H   -13.591   37.225   38.599
H   -12.980   36.352   36.028
H   -14.634   37.606   34.336
H   -13.386   38.631   35.122
H   -14.990   38.616   35.759
H   -15.859   36.759   36.954
H   -14.815   35.273   37.228
H   -15.543   35.784   35.702

