%nproc=24
%mem=75GB
#p cam-b3lyp/Def2SVP td=(nstates=5)

step_1_chromophore_18 TDDFT with cam-b3lyp functional

0 1
Mg   35.496   50.254   25.270
C   35.177   48.233   28.133
C   33.951   52.802   27.062
C   35.524   52.009   22.451
C   36.255   47.316   23.351
N   34.650   50.479   27.320
C   34.759   49.532   28.348
C   34.558   50.223   29.684
C   33.901   51.589   29.336
C   34.189   51.633   27.805
C   32.412   51.773   29.767
C   35.851   50.335   30.564
C   35.577   50.303   32.132
C   34.122   50.225   32.602
O   33.488   49.211   32.821
O   33.522   51.448   32.761
N   34.963   52.124   24.874
C   34.418   53.045   25.752
C   34.292   54.330   25.127
C   34.619   54.108   23.751
C   35.084   52.735   23.667
C   33.723   55.590   25.848
C   34.526   55.058   22.602
O   34.699   54.676   21.420
C   34.142   56.567   22.603
N   35.570   49.711   23.153
C   35.668   50.651   22.194
C   36.166   50.023   20.868
C   36.379   48.529   21.137
C   36.086   48.524   22.702
C   35.302   50.411   19.707
C   37.754   47.935   20.763
C   38.970   48.585   21.468
N   35.635   48.145   25.593
C   36.093   47.168   24.776
C   36.325   45.994   25.616
C   36.017   46.322   26.966
C   35.543   47.655   26.904
C   36.938   44.675   25.153
C   35.967   45.839   28.309
O   36.341   44.806   28.858
C   35.323   47.112   29.167
C   34.105   46.631   29.933
O   33.007   46.491   29.431
O   34.395   46.480   31.270
C   33.502   45.678   32.100
C   32.179   51.407   33.440
C   31.728   52.757   33.816
C   31.476   53.207   35.060
C   31.585   52.419   36.340
C   31.232   54.658   35.253
C   32.494   55.578   35.358
C   32.199   56.970   34.852
C   32.095   57.938   36.032
C   33.530   58.581   36.387
C   31.056   59.133   35.874
C   29.751   59.058   36.829
C   29.767   60.111   37.940
C   29.644   61.531   37.366
C   30.948   62.357   37.629
C   28.401   62.139   37.941
C   27.155   61.735   37.126
C   25.977   62.101   38.070
C   25.105   63.313   37.609
C   24.682   64.143   38.785
C   23.953   62.854   36.704
H   33.579   53.562   27.752
H   35.604   52.661   21.579
H   36.619   46.499   22.725
H   33.857   49.645   30.286
H   34.499   52.360   29.821
H   31.927   52.023   28.824
H   32.302   52.650   30.406
H   31.871   50.939   30.214
H   36.348   51.294   30.421
H   36.547   49.555   30.258
H   35.894   51.265   32.535
H   36.149   49.471   32.542
H   33.111   56.132   25.126
H   34.505   56.274   26.176
H   33.128   55.503   26.757
H   34.790   57.128   23.277
H   33.090   56.730   22.837
H   34.455   57.110   21.712
H   37.076   50.566   20.616
H   35.498   48.045   20.714
H   35.746   51.194   19.092
H   34.312   50.699   20.061
H   35.072   49.590   19.027
H   37.831   48.145   19.696
H   37.755   46.857   20.927
H   39.444   47.775   22.022
H   38.574   49.356   22.129
H   39.645   49.119   20.799
H   37.675   44.286   25.855
H   37.529   44.806   24.247
H   36.124   43.988   24.920
H   36.093   47.354   29.900
H   32.487   45.915   31.780
H   33.564   45.882   33.169
H   33.815   44.645   31.948
H   32.265   50.727   34.287
H   31.423   51.004   32.766
H   31.650   53.498   33.021
H   30.704   52.510   36.975
H   32.324   52.846   37.017
H   31.698   51.339   36.240
H   30.791   54.838   36.233
H   30.508   55.014   34.520
H   33.249   55.124   34.715
H   32.940   55.631   36.351
H   31.333   56.919   34.192
H   32.992   57.238   34.153
H   31.795   57.422   36.944
H   33.614   59.644   36.163
H   34.305   58.039   35.845
H   33.851   58.384   37.410
H   30.661   59.072   34.859
H   31.512   60.117   35.981
H   29.423   58.069   37.150
H   28.914   59.325   36.184
H   30.794   59.960   38.273
H   28.948   59.747   38.560
H   29.581   61.567   36.278
H   31.798   61.800   38.023
H   30.697   63.114   38.371
H   31.266   62.821   36.696
H   28.527   63.219   37.874
H   28.265   61.888   38.993
H   27.274   60.722   36.740
H   27.103   62.354   36.230
H   26.344   62.379   39.058
H   25.434   61.177   38.267
H   25.737   63.849   36.901
H   25.303   65.034   38.686
H   24.842   63.722   39.778
H   23.602   64.275   38.717
H   23.032   62.759   37.280
H   24.164   61.967   36.107
H   23.724   63.565   35.911

