%nproc=24
%mem=75GB
#p blyp/Def2SVP td=(nstates=5)

step_1101_chromophore_16 TDDFT with blyp functional

0 1
Mg   41.439   42.299   27.202
C   40.316   44.231   29.818
C   42.503   39.939   29.575
C   42.775   40.297   24.763
C   40.502   44.632   24.928
N   41.310   42.073   29.463
C   40.798   43.007   30.296
C   40.837   42.529   31.799
C   41.624   41.185   31.605
C   41.851   41.026   30.116
C   42.865   40.973   32.478
C   39.441   42.468   32.484
C   39.395   41.814   33.857
C   39.302   42.761   35.069
O   39.672   43.944   35.054
O   38.782   42.195   36.168
N   42.477   40.413   27.121
C   42.745   39.581   28.215
C   43.529   38.463   27.758
C   43.524   38.530   26.349
C   42.910   39.796   26.026
C   43.949   37.295   28.707
C   43.958   37.397   25.309
O   43.835   37.465   24.086
C   44.399   36.145   25.943
N   41.588   42.374   25.098
C   42.207   41.480   24.303
C   42.182   41.965   22.852
C   41.367   43.321   22.917
C   41.098   43.477   24.413
C   43.506   42.053   22.031
C   40.112   43.298   21.956
C   38.937   42.557   22.442
N   40.585   44.136   27.256
C   40.229   44.994   26.271
C   39.649   46.174   26.829
C   39.605   45.954   28.213
C   40.222   44.676   28.430
C   39.108   47.341   26.133
C   39.198   46.468   29.515
O   38.562   47.443   29.796
C   39.607   45.326   30.518
C   40.208   45.941   31.707
O   41.422   46.113   31.809
O   39.228   46.262   32.639
C   39.710   47.035   33.806
C   38.576   43.006   37.329
C   38.875   42.084   38.511
C   38.927   42.472   39.788
C   38.645   43.856   40.261
C   39.413   41.560   40.934
C   38.237   41.028   41.821
C   38.142   39.488   42.121
C   38.748   39.254   43.519
C   40.179   38.826   43.313
C   37.850   38.251   44.323
C   38.148   38.400   45.839
C   37.001   38.975   46.823
C   36.578   37.920   47.896
C   37.799   37.451   48.695
C   35.868   36.794   47.221
C   34.347   37.023   47.155
C   33.557   35.707   46.880
C   32.210   35.853   46.091
C   32.481   35.408   44.665
C   31.083   34.973   46.715
H   42.898   39.184   30.257
H   43.468   39.786   24.092
H   40.109   45.378   24.233
H   41.480   43.232   32.328
H   40.924   40.388   31.855
H   43.695   41.058   31.777
H   42.853   39.992   32.952
H   42.968   41.828   33.146
H   38.763   41.914   31.835
H   39.100   43.498   32.588
H   40.210   41.110   34.024
H   38.501   41.196   33.925
H   44.029   37.664   29.730
H   44.965   36.961   28.494
H   43.319   36.408   28.771
H   43.516   35.783   26.470
H   45.284   36.416   26.519
H   44.702   35.358   25.253
H   41.650   41.157   22.349
H   41.995   44.169   22.644
H   43.603   41.376   21.182
H   44.287   41.760   22.734
H   43.701   43.047   21.629
H   40.244   42.994   20.917
H   39.931   44.365   21.823
H   38.180   43.257   22.794
H   39.099   41.906   23.302
H   38.511   42.006   21.604
H   39.985   47.827   25.705
H   38.628   48.055   26.802
H   38.437   47.177   25.289
H   38.603   45.014   30.806
H   38.941   47.697   34.203
H   40.529   47.666   33.460
H   40.024   46.458   34.675
H   37.542   43.349   37.309
H   39.263   43.841   37.471
H   39.175   41.041   38.403
H   38.320   44.541   39.477
H   39.526   44.238   40.777
H   37.808   43.810   40.957
H   40.049   42.129   41.612
H   40.136   40.803   40.633
H   37.260   41.282   41.410
H   38.372   41.672   42.690
H   38.702   38.954   41.354
H   37.101   39.191   41.992
H   38.620   40.148   44.129
H   40.347   37.753   43.397
H   40.724   39.356   44.094
H   40.580   39.105   42.339
H   38.165   37.219   44.170
H   36.788   38.371   44.107
H   39.054   38.996   45.948
H   38.555   37.470   46.238
H   36.160   39.291   46.206
H   37.193   39.848   47.446
H   36.025   38.526   48.614
H   38.100   36.428   48.467
H   37.589   37.623   49.751
H   38.700   38.059   48.621
H   36.004   35.767   47.558
H   36.241   36.657   46.206
H   34.264   37.694   46.299
H   34.074   37.480   48.106
H   33.279   35.452   47.903
H   34.210   34.933   46.479
H   31.902   36.898   46.048
H   32.041   36.114   43.961
H   32.018   34.458   44.397
H   33.516   35.183   44.408
H   30.346   35.603   47.214
H   31.464   34.245   47.430
H   30.687   34.309   45.946

