%nproc=24
%mem=75GB
#p blyp/Def2SVP td=(nstates=5)

step_1651_chromophore_12 TDDFT with blyp functional

0 1
Mg   48.269   15.498   27.943
C   46.298   14.942   30.862
C   50.117   17.809   29.762
C   50.191   16.133   25.142
C   45.888   13.855   26.018
N   48.235   16.120   30.033
C   47.320   15.876   31.022
C   47.882   16.442   32.378
C   48.800   17.601   31.881
C   49.073   17.198   30.407
C   48.249   19.048   32.042
C   48.520   15.345   33.367
C   48.091   15.505   34.750
C   49.175   15.394   35.838
O   49.971   14.479   35.830
O   49.134   16.457   36.678
N   50.004   16.671   27.602
C   50.613   17.490   28.477
C   51.772   18.027   27.905
C   51.933   17.408   26.614
C   50.675   16.738   26.381
C   52.612   19.056   28.648
C   53.129   17.443   25.706
O   53.122   16.837   24.624
C   54.441   18.131   26.136
N   48.065   15.089   25.880
C   49.015   15.411   24.890
C   48.579   14.888   23.527
C   47.424   13.871   23.856
C   47.078   14.327   25.341
C   48.188   16.012   22.580
C   47.720   12.396   23.689
C   48.043   11.969   22.245
N   46.396   14.666   28.277
C   45.544   14.083   27.388
C   44.404   13.593   28.155
C   44.732   13.883   29.497
C   45.918   14.543   29.537
C   43.207   12.820   27.645
C   44.244   13.729   30.835
O   43.239   13.176   31.307
C   45.223   14.453   31.759
C   44.557   15.533   32.509
O   44.039   16.510   32.016
O   44.537   15.172   33.877
C   43.628   15.900   34.721
C   50.366   16.486   37.475
C   50.411   17.527   38.582
C   51.510   18.223   38.995
C   52.926   17.802   38.751
C   51.312   19.446   39.986
C   51.141   20.846   39.370
C   52.089   22.023   39.934
C   53.351   22.229   39.094
C   54.632   21.412   39.669
C   53.570   23.783   38.830
C   52.892   24.332   37.536
C   54.009   24.917   36.577
C   54.023   24.239   35.201
C   54.893   22.921   35.300
C   54.604   25.338   34.214
C   53.720   25.609   32.995
C   54.482   25.629   31.631
C   53.918   24.560   30.720
C   54.977   24.043   29.747
C   52.622   25.177   30.134
H   50.620   18.635   30.269
H   50.876   16.289   24.306
H   45.170   13.150   25.594
H   47.048   16.912   32.899
H   49.674   17.640   32.531
H   47.231   19.119   32.423
H   48.219   19.560   31.079
H   48.886   19.686   32.654
H   49.609   15.291   33.359
H   48.236   14.367   32.978
H   47.412   14.702   35.037
H   47.578   16.454   34.905
H   51.836   19.663   29.115
H   53.288   19.665   28.049
H   53.120   18.646   29.521
H   54.304   19.211   26.196
H   55.192   17.899   25.381
H   54.717   17.740   27.116
H   49.396   14.291   23.124
H   46.537   14.016   23.240
H   48.985   16.068   21.838
H   48.053   16.950   23.119
H   47.266   15.861   22.019
H   46.831   11.769   23.751
H   48.521   12.118   24.374
H   47.764   12.814   21.614
H   47.518   11.046   21.999
H   49.113   11.760   22.236
H   43.284   12.669   26.568
H   42.268   13.331   27.860
H   43.053   11.908   28.221
H   45.653   13.691   32.410
H   43.966   16.927   34.855
H   43.654   15.410   35.695
H   42.668   15.820   34.212
H   51.064   16.755   36.683
H   50.744   15.529   37.835
H   49.369   17.800   38.750
H   53.611   18.512   39.213
H   53.282   17.785   37.721
H   53.033   16.864   39.295
H   52.193   19.517   40.623
H   50.563   19.172   40.730
H   50.155   21.310   39.345
H   51.300   20.722   38.298
H   52.386   21.778   40.953
H   51.503   22.940   40.006
H   53.189   21.741   38.133
H   55.192   20.920   38.874
H   54.356   20.717   40.462
H   55.313   22.127   40.129
H   54.630   24.027   38.755
H   53.299   24.373   39.705
H   52.173   25.090   37.847
H   52.375   23.583   36.936
H   55.065   24.784   36.815
H   53.832   25.989   36.502
H   52.998   23.993   34.922
H   55.806   23.302   34.843
H   54.469   22.050   34.801
H   55.034   22.459   36.277
H   55.643   25.219   33.907
H   54.631   26.315   34.697
H   53.149   26.533   33.082
H   53.078   24.729   32.963
H   55.561   25.582   31.779
H   54.353   26.549   31.062
H   53.458   23.683   31.177
H   54.467   23.865   28.800
H   55.333   23.077   30.103
H   55.731   24.784   29.480
H   51.847   24.443   29.912
H   52.932   25.744   29.256
H   52.202   25.815   30.912

