%nproc=24
%mem=75GB
#p PBE1PBE/Def2SVP td=(nstates=5)

step_551_chromophore_26 TDDFT with PBE1PBE functional

0 1
Mg   -8.383   18.287   43.463
C   -4.906   18.032   43.052
C   -7.982   21.798   42.621
C   -11.637   18.523   42.946
C   -8.594   14.760   43.227
N   -6.596   19.758   42.749
C   -5.330   19.371   42.928
C   -4.373   20.550   42.756
C   -5.344   21.778   42.713
C   -6.766   21.085   42.620
C   -5.202   22.907   43.745
C   -3.554   20.287   41.425
C   -4.208   19.713   40.177
C   -3.590   19.918   38.770
O   -2.403   20.091   38.557
O   -4.512   19.947   37.795
N   -9.621   19.863   42.983
C   -9.229   21.168   42.593
C   -10.427   21.960   42.360
C   -11.458   21.021   42.588
C   -10.933   19.742   42.901
C   -10.435   23.467   41.914
C   -12.938   21.476   42.435
O   -13.139   22.627   42.018
C   -14.094   20.585   42.659
N   -9.901   16.835   43.201
C   -11.168   17.208   43.057
C   -12.049   15.963   43.130
C   -11.073   14.764   43.300
C   -9.771   15.494   43.087
C   -13.212   16.098   44.231
C   -11.371   13.570   42.322
C   -12.848   13.210   42.132
N   -7.066   16.724   43.352
C   -7.282   15.383   43.334
C   -6.035   14.684   43.459
C   -5.049   15.687   43.371
C   -5.742   16.941   43.269
C   -5.754   13.166   43.516
C   -3.565   15.951   43.393
O   -2.642   15.115   43.500
C   -3.455   17.550   43.262
C   -2.865   18.097   44.509
O   -1.968   18.946   44.434
O   -3.475   17.551   45.663
C   -3.021   18.094   46.951
C   -4.055   20.147   36.497
C   -5.285   20.060   35.708
C   -6.022   18.972   35.326
C   -5.713   17.572   35.851
C   -7.176   19.082   34.343
C   -8.537   19.153   34.990
C   -9.674   18.272   34.357
C   -10.885   19.092   34.007
C   -12.051   18.132   33.811
C   -10.536   19.877   32.734
C   -10.854   21.450   32.765
C   -9.735   22.420   32.896
C   -9.751   23.507   31.752
C   -8.989   24.777   32.114
C   -9.133   22.851   30.517
C   -10.171   22.678   29.408
C   -9.632   23.127   28.043
C   -10.634   22.865   26.817
C   -10.720   21.376   26.277
C   -10.370   23.949   25.798
H   -7.852   22.876   42.506
H   -12.729   18.504   42.969
H   -8.676   13.682   43.375
H   -3.616   20.562   43.541
H   -5.245   22.203   41.714
H   -5.030   23.895   43.319
H   -4.466   22.774   44.538
H   -6.107   23.009   44.345
H   -2.600   19.809   41.646
H   -3.188   21.288   41.195
H   -5.146   20.269   40.195
H   -4.302   18.638   40.334
H   -9.424   23.873   41.954
H   -10.935   24.114   42.634
H   -10.863   23.793   40.966
H   -13.949   20.126   43.636
H   -14.108   19.861   41.844
H   -15.004   21.186   42.663
H   -12.445   15.895   42.116
H   -11.107   14.422   44.334
H   -14.167   16.343   43.766
H   -12.837   16.859   44.917
H   -13.359   15.165   44.775
H   -11.000   12.742   42.926
H   -10.850   13.710   41.375
H   -12.916   12.137   42.313
H   -13.115   13.649   41.170
H   -13.511   13.619   42.895
H   -5.318   12.921   44.485
H   -4.985   12.940   42.778
H   -6.669   12.574   43.474
H   -2.784   17.800   42.441
H   -3.840   18.485   47.555
H   -2.268   18.870   46.815
H   -2.487   17.273   47.429
H   -3.297   19.453   36.135
H   -3.790   21.196   36.362
H   -5.568   21.058   35.372
H   -5.012   17.105   35.159
H   -6.636   17.012   36.005
H   -5.275   17.652   36.846
H   -7.244   18.116   33.844
H   -7.039   19.976   33.734
H   -8.695   20.198   34.721
H   -8.446   19.083   36.074
H   -10.064   17.472   34.986
H   -9.342   17.950   33.371
H   -11.148   19.825   34.770
H   -12.534   17.906   34.762
H   -11.742   17.153   33.445
H   -12.760   18.552   33.097
H   -11.013   19.475   31.841
H   -9.493   19.826   32.421
H   -11.461   21.632   33.652
H   -11.586   21.647   31.982
H   -8.774   21.936   32.724
H   -9.738   22.935   33.856
H   -10.766   23.886   31.629
H   -9.652   25.633   32.234
H   -8.217   25.138   31.434
H   -8.496   24.626   33.074
H   -8.735   21.857   30.723
H   -8.315   23.403   30.054
H   -11.122   23.165   29.625
H   -10.377   21.621   29.241
H   -8.723   22.593   27.766
H   -9.426   24.180   28.235
H   -11.625   23.063   27.227
H   -11.700   20.915   26.400
H   -10.048   20.843   26.950
H   -10.340   21.411   25.256
H   -9.302   24.166   25.831
H   -10.900   24.841   26.134
H   -10.682   23.626   24.804

