%nproc=24
%mem=75GB
#p wB97XD/Def2SVP td=(nstates=5)

step_1351_chromophore_25 TDDFT with wB97XD functional

0 1
Mg   -2.399   34.559   26.391
C   -3.664   33.264   29.341
C   -0.871   37.078   28.224
C   -2.050   36.328   23.548
C   -4.493   32.314   24.538
N   -2.239   35.073   28.512
C   -2.794   34.319   29.580
C   -2.127   34.730   30.936
C   -1.423   36.124   30.556
C   -1.580   36.151   29.034
C   -1.791   37.435   31.274
C   -1.183   33.548   31.585
C   -1.783   32.986   32.923
C   -0.726   32.849   34.111
O   0.399   32.412   33.900
O   -1.124   33.169   35.347
N   -1.469   36.429   25.958
C   -0.793   37.216   26.837
C   -0.173   38.325   26.104
C   -0.561   38.175   24.722
C   -1.370   36.897   24.682
C   0.530   39.537   26.701
C   -0.244   39.059   23.501
O   -0.788   38.931   22.436
C   0.645   40.285   23.627
N   -3.270   34.359   24.285
C   -2.768   35.139   23.375
C   -3.157   34.744   21.982
C   -4.020   33.415   22.194
C   -3.964   33.305   23.734
C   -3.915   35.840   21.091
C   -3.491   32.050   21.574
C   -2.492   32.084   20.406
N   -3.695   33.011   26.777
C   -4.382   32.120   25.981
C   -5.034   31.094   26.706
C   -4.682   31.487   28.057
C   -3.920   32.700   28.030
C   -5.886   29.994   26.216
C   -4.906   31.182   29.399
O   -5.562   30.186   29.879
C   -4.180   32.206   30.322
C   -5.194   32.633   31.276
O   -6.143   33.331   30.963
O   -4.853   32.071   32.501
C   -5.677   32.370   33.680
C   -0.052   33.152   36.311
C   -0.516   33.796   37.567
C   0.178   34.327   38.585
C   1.644   34.687   38.451
C   -0.397   34.565   39.909
C   -0.477   36.087   40.279
C   0.325   36.537   41.576
C   -0.679   36.952   42.722
C   -0.914   38.460   42.795
C   -0.371   36.409   44.148
C   1.160   36.215   44.518
C   1.497   36.601   45.953
C   2.590   35.772   46.637
C   2.322   35.692   48.210
C   4.038   36.383   46.369
C   4.949   35.403   45.640
C   4.991   35.644   44.125
C   4.885   34.320   43.273
C   6.189   33.739   42.810
C   3.794   34.416   42.089
H   -0.230   37.744   28.806
H   -1.900   36.862   22.607
H   -4.973   31.495   23.997
H   -3.020   34.932   31.527
H   -0.347   35.970   30.637
H   -2.073   37.256   32.311
H   -2.530   38.035   30.742
H   -1.023   38.198   31.400
H   -0.168   33.894   31.780
H   -1.058   32.767   30.835
H   -2.211   31.985   32.879
H   -2.615   33.596   33.276
H   -0.257   40.271   26.527
H   1.396   39.711   26.062
H   0.751   39.580   27.767
H   0.821   40.754   22.659
H   1.637   40.102   24.039
H   0.060   41.047   24.143
H   -2.229   34.527   21.454
H   -5.089   33.551   22.030
H   -3.169   36.357   20.488
H   -4.265   36.590   21.799
H   -4.690   35.368   20.486
H   -4.430   31.652   21.191
H   -3.190   31.283   22.288
H   -1.515   32.397   20.774
H   -2.810   32.762   19.615
H   -2.516   31.106   19.925
H   -6.868   30.461   26.144
H   -5.907   29.175   26.935
H   -5.638   29.578   25.239
H   -3.482   31.590   30.889
H   -6.666   32.740   33.410
H   -5.181   33.206   34.173
H   -5.757   31.572   34.417
H   0.843   33.652   35.942
H   0.215   32.157   36.668
H   -1.566   33.590   37.775
H   2.144   34.334   39.352
H   1.680   35.776   38.470
H   2.158   34.345   37.552
H   0.136   34.073   40.722
H   -1.399   34.148   39.813
H   -1.529   36.374   40.260
H   -0.103   36.725   39.478
H   1.079   37.287   41.338
H   0.891   35.636   41.813
H   -1.594   36.426   42.448
H   -0.553   38.998   43.671
H   -1.996   38.574   42.727
H   -0.560   38.910   41.867
H   -0.857   35.438   44.239
H   -0.947   37.057   44.809
H   1.732   36.835   43.828
H   1.399   35.166   44.344
H   0.617   36.763   46.575
H   1.686   37.649   45.721
H   2.541   34.779   46.190
H   1.670   34.836   48.387
H   1.823   36.597   48.556
H   3.225   35.631   48.818
H   4.475   36.645   47.332
H   3.983   37.295   45.774
H   4.705   34.369   45.885
H   5.955   35.352   46.056
H   5.972   36.057   43.893
H   4.276   36.395   43.786
H   4.645   33.491   43.939
H   6.138   32.652   42.877
H   7.106   34.079   43.290
H   6.340   34.028   41.770
H   2.811   34.319   42.549
H   3.919   33.652   41.320
H   3.798   35.414   41.651

