%nproc=24
%mem=75GB
#p PBE1PBE/Def2SVP td=(nstates=5)

step_1_chromophore_13 TDDFT with PBE1PBE functional

0 1
Mg   46.269   25.137   28.870
C   47.264   27.261   31.452
C   45.068   22.980   31.102
C   46.593   22.696   26.499
C   47.586   27.403   26.575
N   46.028   25.204   31.054
C   46.486   26.155   31.859
C   45.989   25.868   33.322
C   45.393   24.446   33.190
C   45.512   24.155   31.697
C   46.240   23.308   33.949
C   44.921   26.907   33.894
C   45.180   27.258   35.319
C   44.051   27.156   36.333
O   42.867   26.915   35.975
O   44.429   27.395   37.661
N   45.856   23.126   28.820
C   45.332   22.402   29.858
C   44.872   21.106   29.340
C   45.325   21.036   27.993
C   46.006   22.318   27.747
C   44.159   20.036   30.227
C   45.218   19.848   26.990
O   45.636   19.880   25.838
C   44.545   18.610   27.449
N   46.989   25.039   26.905
C   47.100   23.902   26.099
C   47.904   24.250   24.819
C   47.616   25.804   24.632
C   47.369   26.076   26.143
C   49.389   23.836   24.901
C   46.421   26.187   23.806
C   45.034   26.121   24.373
N   47.052   27.048   28.895
C   47.585   27.842   27.906
C   48.078   29.117   28.432
C   48.070   28.906   29.884
C   47.439   27.616   30.079
C   48.679   30.186   27.673
C   48.437   29.466   31.179
O   49.025   30.434   31.487
C   47.841   28.427   32.265
C   48.812   28.038   33.351
O   49.557   27.063   33.319
O   48.648   28.911   34.426
C   49.485   28.689   35.619
C   43.349   27.285   38.637
C   43.409   25.981   39.381
C   42.815   25.681   40.590
C   41.973   26.587   41.465
C   42.734   24.216   41.042
C   41.351   23.566   40.779
C   40.703   22.851   41.985
C   39.508   23.598   42.670
C   38.403   24.144   41.698
C   39.895   24.531   43.902
C   39.162   24.066   45.190
C   39.581   24.896   46.451
C   39.961   24.135   47.775
C   38.669   23.802   48.578
C   41.147   24.756   48.588
C   42.323   23.838   49.005
C   43.624   24.128   48.208
C   44.103   22.857   47.389
C   45.589   22.553   47.793
C   43.991   23.134   45.943
H   44.472   22.249   31.653
H   46.682   21.863   25.798
H   47.892   28.105   25.797
H   46.815   25.796   34.030
H   44.379   24.310   33.566
H   45.810   23.210   34.946
H   47.290   23.544   34.120
H   46.105   22.373   33.404
H   43.906   26.513   33.840
H   44.837   27.845   33.345
H   45.396   28.325   35.272
H   46.031   26.791   35.814
H   44.956   19.415   30.635
H   43.406   19.484   29.664
H   43.772   20.426   31.169
H   44.702   18.211   28.451
H   44.791   17.789   26.776
H   43.488   18.660   27.186
H   47.384   23.696   24.038
H   48.474   26.338   24.224
H   50.125   24.615   24.702
H   49.613   22.906   24.378
H   49.632   23.532   25.919
H   46.321   25.627   22.877
H   46.561   27.219   23.484
H   44.874   27.146   24.707
H   44.906   25.482   25.247
H   44.336   25.842   23.583
H   48.364   31.108   28.162
H   48.250   30.148   26.672
H   49.765   30.102   27.699
H   47.002   28.925   32.751
H   50.519   28.644   35.276
H   49.254   27.730   36.082
H   49.443   29.398   36.446
H   42.336   27.395   38.248
H   43.487   28.078   39.372
H   43.853   25.226   38.732
H   41.272   26.017   42.075
H   41.511   27.260   40.743
H   42.523   27.262   42.120
H   43.024   24.201   42.092
H   43.495   23.574   40.598
H   41.444   22.864   39.951
H   40.650   24.333   40.450
H   41.474   22.658   42.731
H   40.222   21.953   41.596
H   38.961   22.726   43.029
H   38.482   25.230   41.749
H   37.376   23.925   41.991
H   38.534   23.953   40.633
H   39.589   25.547   43.653
H   40.982   24.500   43.966
H   39.319   23.014   45.431
H   38.124   24.160   44.870
H   38.755   25.555   46.719
H   40.449   25.467   46.122
H   40.478   23.223   47.478
H   38.800   22.767   48.892
H   37.770   23.996   47.993
H   38.702   24.386   49.499
H   40.755   25.112   49.541
H   41.450   25.723   48.186
H   41.963   22.833   48.785
H   42.519   24.053   50.055
H   44.472   24.364   48.852
H   43.540   25.064   47.655
H   43.370   22.066   47.546
H   46.188   23.440   47.587
H   45.755   21.582   47.327
H   45.494   22.426   48.871
H   43.205   23.842   45.679
H   43.872   22.196   45.400
H   44.884   23.614   45.544

