%nproc=24
%mem=50gb
#p ZINDO=(nstates=5)

step_1651_chromophore_14 ZINDO

0 1
Mg   46.406   44.022   43.858
C   43.032   43.596   43.631
C   46.850   40.693   43.185
C   49.699   44.667   43.581
C   45.865   47.572   44.026
N   45.112   42.392   43.569
C   43.768   42.395   43.499
C   43.160   40.989   43.133
C   44.368   40.064   43.518
C   45.541   41.100   43.400
C   44.326   39.490   44.939
C   42.702   40.754   41.683
C   43.346   41.663   40.622
C   42.984   41.266   39.199
O   42.175   40.366   38.923
O   43.578   42.041   38.238
N   48.020   42.869   43.438
C   47.992   41.544   43.186
C   49.274   41.098   42.968
C   50.204   42.193   43.127
C   49.344   43.332   43.383
C   49.536   39.703   42.572
C   51.699   42.155   42.887
O   52.263   41.104   42.530
C   52.592   43.377   43.049
N   47.622   45.945   43.564
C   48.954   45.888   43.645
C   49.476   47.309   43.844
C   48.311   48.307   43.886
C   47.207   47.220   43.834
C   50.356   47.385   45.138
C   48.163   49.192   42.582
C   47.516   50.567   42.656
N   44.777   45.360   43.863
C   44.661   46.740   44.024
C   43.293   47.015   44.319
C   42.558   45.876   43.940
C   43.540   44.844   43.865
C   42.875   48.441   44.558
C   41.247   45.342   43.786
O   40.127   45.791   43.763
C   41.569   43.824   43.630
C   40.801   43.158   44.730
O   39.740   42.596   44.613
O   41.485   43.195   45.903
C   41.058   42.391   47.061
C   43.106   41.746   36.839
C   44.161   42.452   35.959
C   45.087   41.902   35.155
C   45.454   40.509   35.315
C   45.992   42.716   34.144
C   45.679   42.547   32.663
C   45.007   43.778   31.960
C   45.295   43.816   30.461
C   45.357   45.248   29.894
C   44.192   43.048   29.601
C   44.674   42.008   28.683
C   43.964   42.224   27.245
C   44.725   43.350   26.512
C   43.814   44.576   26.247
C   45.296   42.831   25.163
C   46.372   43.906   24.534
C   47.262   43.116   23.464
C   47.278   43.834   22.103
C   45.952   43.619   21.363
C   48.492   43.450   21.198
H   46.876   39.620   42.987
H   50.758   44.931   43.576
H   45.868   48.620   44.332
H   42.319   40.760   43.788
H   44.552   39.325   42.739
H   45.318   39.726   45.324
H   44.127   38.418   44.936
H   43.687   39.923   45.708
H   41.624   40.884   41.594
H   42.992   39.742   41.399
H   44.421   41.831   40.568
H   42.923   42.606   40.967
H   50.113   39.709   41.647
H   48.692   39.091   42.256
H   50.089   39.168   43.345
H   52.481   43.962   43.962
H   52.488   44.056   42.202
H   53.626   43.053   43.165
H   50.104   47.582   42.996
H   48.291   48.913   44.792
H   49.828   48.011   45.857
H   51.348   47.788   44.931
H   50.570   46.467   45.685
H   47.559   48.613   41.883
H   49.171   49.249   42.171
H   47.281   50.762   43.702
H   46.621   50.522   42.036
H   48.132   51.400   42.318
H   41.831   48.483   44.245
H   43.375   49.150   43.899
H   42.976   48.562   45.637
H   41.132   43.458   42.701
H   40.779   43.197   47.739
H   41.928   41.918   47.517
H   40.207   41.738   46.866
H   42.139   42.227   36.692
H   42.951   40.689   36.624
H   44.095   43.537   35.887
H   46.535   40.383   35.255
H   44.996   40.073   34.428
H   44.929   40.016   36.134
H   47.026   42.435   34.345
H   45.887   43.786   34.326
H   44.889   41.804   32.763
H   46.425   42.100   32.005
H   45.359   44.691   32.441
H   43.946   43.569   32.094
H   46.200   43.264   30.206
H   46.273   45.672   30.305
H   44.582   45.923   30.257
H   45.593   45.117   28.838
H   43.496   43.748   29.138
H   43.558   42.513   30.308
H   44.512   41.111   29.280
H   45.752   41.991   28.520
H   42.895   42.434   27.276
H   44.113   41.283   26.714
H   45.547   43.809   27.061
H   44.350   45.443   26.632
H   42.872   44.496   26.790
H   43.507   44.752   25.216
H   44.459   42.748   24.470
H   45.734   41.841   25.289
H   47.103   44.247   25.267
H   45.789   44.784   24.257
H   46.828   42.151   23.207
H   48.318   42.970   23.692
H   47.357   44.911   22.247
H   45.313   42.891   21.863
H   46.076   43.363   20.311
H   45.407   44.563   21.373
H   49.155   44.305   21.066
H   48.270   43.041   20.212
H   49.110   42.739   21.747

