%nproc=24
%mem=75GB
#p PBE1PBE/Def2SVP td=(nstates=5)

step_1451_chromophore_2 TDDFT with PBE1PBE functional

0 1
Mg   2.172   -0.532   43.907
C   5.628   -0.324   42.930
C   1.514   2.383   42.189
C   -0.888   -1.487   43.665
C   3.076   -3.959   44.975
N   3.448   0.863   42.707
C   4.811   0.746   42.454
C   5.321   2.018   41.691
C   3.967   2.810   41.538
C   2.898   1.945   42.192
C   3.980   4.274   42.076
C   6.206   1.893   40.414
C   5.894   0.690   39.574
C   6.145   0.885   38.051
O   7.258   0.719   37.493
O   5.046   1.272   37.411
N   0.487   0.415   43.237
C   0.371   1.589   42.545
C   -1.028   1.901   42.336
C   -1.808   0.804   42.865
C   -0.715   -0.185   43.242
C   -1.463   3.222   41.765
C   -3.371   0.589   42.919
O   -4.088   1.419   42.402
C   -3.973   -0.634   43.658
N   1.282   -2.504   44.171
C   -0.105   -2.547   44.060
C   -0.584   -3.959   44.367
C   0.723   -4.757   44.533
C   1.788   -3.707   44.539
C   -1.411   -3.998   45.700
C   0.908   -5.809   43.387
C   1.541   -7.142   43.910
N   4.045   -1.802   44.255
C   4.199   -3.089   44.718
C   5.614   -3.461   44.676
C   6.228   -2.387   44.008
C   5.200   -1.440   43.721
C   6.198   -4.740   45.226
C   7.471   -1.921   43.419
O   8.634   -2.445   43.445
C   7.160   -0.550   42.743
C   8.091   0.456   43.304
O   9.211   0.605   42.904
O   7.515   1.128   44.344
C   8.366   2.251   44.719
C   5.063   1.512   35.986
C   5.601   0.290   35.229
C   5.027   -0.882   34.802
C   3.723   -1.359   35.189
C   5.898   -1.874   33.954
C   5.433   -2.167   32.494
C   6.004   -1.133   31.474
C   4.915   -0.670   30.416
C   5.521   -0.513   28.964
C   4.316   0.670   30.944
C   2.856   0.944   30.616
C   1.830   0.312   31.677
C   1.120   1.477   32.411
C   2.033   2.319   33.401
C   -0.084   0.971   33.200
C   -1.368   1.163   32.413
C   -1.873   2.612   32.375
C   -2.387   3.231   31.027
C   -1.440   4.356   30.545
C   -3.830   3.695   30.989
H   1.312   3.326   41.677
H   -1.922   -1.828   43.748
H   3.201   -5.029   45.149
H   5.851   2.503   42.511
H   3.769   2.837   40.466
H   2.974   4.689   42.143
H   4.603   4.760   41.326
H   4.376   4.260   43.091
H   7.243   2.105   40.677
H   5.972   2.791   39.843
H   4.865   0.336   39.636
H   6.594   -0.098   39.849
H   -1.825   3.046   40.752
H   -0.687   3.968   41.597
H   -2.263   3.573   42.417
H   -3.319   -0.835   44.507
H   -3.988   -1.477   42.969
H   -4.917   -0.529   44.193
H   -1.244   -4.404   43.622
H   0.631   -5.123   45.556
H   -2.197   -3.249   45.603
H   -0.777   -3.893   46.580
H   -1.826   -4.986   45.899
H   1.571   -5.414   42.617
H   -0.047   -5.960   42.884
H   1.885   -7.093   44.943
H   2.387   -7.526   43.340
H   0.932   -8.043   43.845
H   5.667   -5.619   44.861
H   6.205   -4.719   46.316
H   7.249   -4.751   44.937
H   7.419   -0.789   41.712
H   8.495   2.836   43.808
H   9.308   1.965   45.188
H   7.904   2.925   45.440
H   5.717   2.321   35.662
H   4.016   1.679   35.736
H   6.626   0.307   34.858
H   3.000   -1.367   34.373
H   3.489   -0.795   36.092
H   3.814   -2.384   35.548
H   6.011   -2.833   34.460
H   6.935   -1.539   33.943
H   4.364   -1.981   32.597
H   5.536   -3.229   32.273
H   6.713   -1.768   30.944
H   6.586   -0.369   31.990
H   4.138   -1.413   30.236
H   5.122   0.389   28.498
H   5.348   -1.359   28.298
H   6.572   -0.237   28.880
H   4.936   1.465   30.530
H   4.440   0.647   32.027
H   2.601   0.437   29.685
H   2.746   2.016   30.453
H   2.492   -0.299   32.290
H   1.128   -0.367   31.193
H   0.661   2.113   31.655
H   3.065   1.984   33.300
H   1.691   2.086   34.410
H   1.926   3.379   33.171
H   -0.225   1.452   34.167
H   0.096   -0.089   33.383
H   -2.145   0.670   32.999
H   -1.320   0.637   31.460
H   -1.116   3.186   32.911
H   -2.720   2.621   33.061
H   -2.292   2.490   30.234
H   -1.112   4.151   29.526
H   -0.618   4.458   31.253
H   -1.907   5.339   30.486
H   -3.909   4.780   30.917
H   -4.379   3.406   31.885
H   -4.292   3.230   30.118

