%nproc=24
%mem=50gb
#p ZINDO=(nstates=5)

step_701_chromophore_9 ZINDO

0 1
Mg   35.558   0.516   29.022
C   33.414   1.778   31.579
C   38.131   0.803   31.309
C   37.585   -0.150   26.516
C   32.835   0.988   26.801
N   35.764   1.242   31.236
C   34.766   1.536   32.095
C   35.210   1.658   33.554
C   36.790   1.482   33.450
C   36.913   1.183   31.913
C   37.505   2.819   33.718
C   34.514   0.579   34.500
C   34.560   0.766   36.064
C   35.232   2.072   36.542
O   34.791   3.226   36.411
O   36.350   1.787   37.350
N   37.599   0.367   28.900
C   38.468   0.506   29.921
C   39.852   0.098   29.432
C   39.705   -0.209   27.980
C   38.262   0.046   27.749
C   40.988   -0.006   30.432
C   40.631   -0.683   26.892
O   40.289   -1.082   25.799
C   42.015   -0.902   27.289
N   35.177   0.379   26.939
C   36.235   0.117   26.150
C   35.821   0.128   24.633
C   34.266   0.483   24.785
C   34.046   0.609   26.294
C   36.707   1.186   23.797
C   33.336   -0.579   24.057
C   33.054   -1.892   24.765
N   33.514   1.092   29.140
C   32.506   1.221   28.140
C   31.204   1.622   28.698
C   31.532   1.888   30.074
C   32.933   1.593   30.240
C   30.017   1.818   27.843
C   31.012   2.369   31.324
O   29.920   2.711   31.629
C   32.166   2.236   32.366
C   32.335   3.450   33.255
O   33.036   4.342   32.901
O   31.621   3.274   34.448
C   31.734   4.403   35.405
C   36.948   2.987   38.054
C   38.271   2.639   38.731
C   38.404   2.582   40.062
C   37.328   2.669   41.115
C   39.777   2.631   40.703
C   40.232   1.241   41.100
C   40.981   1.332   42.465
C   41.939   0.119   42.701
C   41.219   -1.005   43.452
C   43.409   0.474   43.332
C   44.300   1.237   42.317
C   45.343   2.214   43.015
C   45.525   3.555   42.220
C   46.925   4.088   42.625
C   44.420   4.644   42.579
C   44.098   5.615   41.431
C   43.780   7.091   41.993
C   44.656   8.275   41.457
C   46.104   8.190   41.905
C   44.143   9.639   41.813
H   38.986   0.800   31.988
H   38.134   -0.456   25.623
H   32.108   1.225   26.022
H   34.982   2.661   33.915
H   37.011   0.685   34.159
H   36.829   3.673   33.663
H   38.310   2.984   33.001
H   38.100   2.941   34.624
H   35.142   -0.241   34.154
H   33.464   0.414   34.259
H   34.976   -0.075   36.620
H   33.513   0.866   36.352
H   41.948   -0.293   30.004
H   40.706   -0.778   31.147
H   41.066   1.006   30.829
H   42.548   -0.101   27.801
H   42.645   -1.338   26.514
H   41.850   -1.744   27.962
H   35.937   -0.903   24.299
H   33.929   1.457   24.430
H   37.078   0.705   22.892
H   37.549   1.524   24.402
H   36.057   2.038   23.601
H   33.643   -0.762   23.027
H   32.437   0.036   24.088
H   32.033   -1.925   25.146
H   33.675   -2.026   25.650
H   33.316   -2.659   24.036
H   30.143   1.815   26.760
H   29.532   2.744   28.152
H   29.238   1.091   28.072
H   31.870   1.488   33.102
H   31.233   5.240   34.919
H   32.753   4.789   35.450
H   31.169   4.159   36.304
H   36.208   3.186   38.829
H   37.041   3.830   37.369
H   39.183   2.710   38.138
H   37.662   2.061   41.956
H   36.471   2.192   40.640
H   37.167   3.745   41.190
H   39.655   3.218   41.613
H   40.468   3.135   40.027
H   40.963   0.848   40.393
H   39.312   0.663   41.192
H   40.218   1.281   43.242
H   41.538   2.268   42.505
H   42.181   -0.340   41.743
H   41.166   -1.895   42.825
H   40.192   -0.754   43.719
H   41.826   -1.282   44.313
H   43.820   -0.490   43.629
H   43.405   1.084   44.235
H   43.744   1.840   41.600
H   44.895   0.432   41.886
H   46.262   1.628   43.021
H   45.021   2.601   43.981
H   45.518   3.370   41.146
H   46.814   5.168   42.722
H   47.646   3.836   41.847
H   47.189   3.651   43.588
H   44.775   5.246   43.415
H   43.503   4.149   42.900
H   43.175   5.224   41.003
H   44.922   5.655   40.720
H   43.779   7.074   43.083
H   42.777   7.307   41.626
H   44.641   8.208   40.370
H   46.223   7.684   42.863
H   46.590   9.162   41.986
H   46.687   7.694   41.129
H   44.645   10.356   41.162
H   44.363   9.879   42.853
H   43.059   9.714   41.892

