%nproc=24
%mem=50gb
#p ZINDO=(nstates=5)

step_1851_chromophore_16 ZINDO

0 1
Mg   41.083   41.087   26.950
C   40.284   43.436   29.506
C   42.006   38.802   29.460
C   42.030   39.018   24.591
C   40.720   43.648   24.587
N   41.119   41.120   29.120
C   40.714   42.125   29.937
C   40.760   41.734   31.432
C   41.294   40.311   31.414
C   41.521   40.002   29.880
C   42.569   40.026   32.273
C   39.533   41.972   32.256
C   39.815   42.422   33.667
C   38.715   43.057   34.554
O   37.749   43.665   34.128
O   38.956   42.875   35.857
N   41.950   39.201   26.963
C   42.179   38.409   28.064
C   42.613   37.132   27.557
C   42.561   37.137   26.139
C   42.268   38.565   25.894
C   42.840   35.944   28.478
C   42.809   35.960   25.229
O   42.769   36.158   24.030
C   43.066   34.520   25.764
N   41.492   41.364   25.020
C   41.684   40.255   24.151
C   41.592   40.610   22.604
C   41.327   42.147   22.714
C   41.195   42.412   24.171
C   42.806   40.331   21.778
C   40.166   42.600   21.802
C   38.745   42.387   22.362
N   40.442   43.102   26.978
C   40.415   44.017   25.935
C   39.988   45.272   26.484
C   39.863   45.071   27.848
C   40.262   43.773   28.125
C   39.851   46.484   25.732
C   39.459   45.767   29.078
O   39.027   46.907   29.176
C   39.680   44.645   30.190
C   40.559   45.355   31.196
O   41.786   45.303   31.215
O   39.683   45.998   32.078
C   40.364   46.628   33.180
C   37.948   43.298   36.819
C   38.417   42.683   38.090
C   38.193   43.027   39.325
C   37.253   44.160   39.823
C   38.690   42.280   40.533
C   38.240   40.677   40.730
C   38.156   40.254   42.261
C   39.001   39.002   42.527
C   38.147   37.729   42.203
C   39.520   38.916   43.944
C   38.440   38.686   44.982
C   38.997   38.078   46.202
C   38.202   38.330   47.493
C   38.913   39.281   48.517
C   37.571   37.083   48.166
C   36.057   37.043   48.136
C   35.434   36.542   46.829
C   33.919   36.813   46.793
C   33.375   36.971   45.365
C   33.083   35.693   47.638
H   42.225   38.010   30.179
H   42.215   38.363   23.738
H   40.652   44.435   23.834
H   41.626   42.327   31.727
H   40.573   39.588   31.796
H   43.274   39.414   31.710
H   42.147   39.540   33.153
H   43.030   40.974   32.549
H   39.021   41.016   32.371
H   38.808   42.676   31.849
H   40.678   43.087   33.683
H   40.164   41.501   34.133
H   42.121   35.144   28.304
H   42.823   36.135   29.551
H   43.855   35.548   28.424
H   43.890   34.396   26.466
H   43.188   33.794   24.959
H   42.152   34.317   26.322
H   40.764   40.044   22.176
H   42.174   42.808   22.530
H   42.536   39.545   21.072
H   43.520   39.921   22.493
H   43.192   41.218   21.275
H   40.237   41.849   21.016
H   40.419   43.624   21.527
H   38.259   43.326   22.098
H   38.680   42.247   23.441
H   38.359   41.565   21.759
H   39.316   46.251   24.812
H   40.809   46.966   25.537
H   39.199   47.225   26.196
H   38.695   44.443   30.609
H   41.390   46.914   32.947
H   40.504   45.938   34.012
H   39.741   47.471   33.479
H   36.933   43.009   36.547
H   37.938   44.370   37.019
H   39.030   41.791   37.962
H   36.447   43.642   40.343
H   36.843   44.789   39.033
H   37.764   44.780   40.560
H   38.606   42.837   41.467
H   39.771   42.166   40.446
H   38.955   40.071   40.175
H   37.259   40.588   40.264
H   37.144   39.944   42.522
H   38.357   41.035   42.995
H   39.796   39.021   41.782
H   38.430   36.875   42.818
H   38.238   37.401   41.168
H   37.108   37.970   42.426
H   39.892   39.894   44.248
H   40.287   38.148   44.041
H   37.742   37.956   44.571
H   37.841   39.579   45.161
H   40.023   38.432   46.297
H   39.050   36.994   46.103
H   37.382   39.002   47.242
H   39.373   38.704   49.319
H   38.200   39.890   49.074
H   39.603   39.956   48.012
H   37.850   37.094   49.219
H   37.911   36.143   47.729
H   35.648   38.050   48.224
H   35.617   36.523   48.988
H   35.687   35.492   46.682
H   35.924   37.096   46.028
H   33.709   37.765   47.279
H   33.935   36.281   44.733
H   33.619   37.986   45.049
H   32.316   36.798   45.176
H   32.381   35.202   46.963
H   32.594   36.118   48.514
H   33.806   35.000   48.068

