%nproc=24
%mem=50gb
#p ZINDO=(nstates=5)

step_1451_chromophore_1 ZINDO

0 1
Mg   -1.007   16.765   26.715
C   -1.885   14.616   29.297
C   -1.949   19.395   28.612
C   -1.267   18.778   23.919
C   -0.639   13.948   24.586
N   -2.040   16.919   28.653
C   -2.091   15.970   29.621
C   -2.445   16.565   30.976
C   -2.826   18.007   30.622
C   -2.302   18.159   29.198
C   -4.365   18.288   30.581
C   -1.258   16.483   32.099
C   -1.708   16.194   33.574
C   -0.594   16.107   34.564
O   0.522   15.584   34.327
O   -0.861   16.683   35.771
N   -1.222   18.860   26.421
C   -1.591   19.794   27.294
C   -1.593   21.163   26.734
C   -1.401   20.906   25.348
C   -1.243   19.443   25.169
C   -1.984   22.367   27.497
C   -1.360   21.914   24.126
O   -0.938   21.673   22.988
C   -1.555   23.348   24.475
N   -0.860   16.426   24.565
C   -1.145   17.404   23.631
C   -0.970   16.862   22.218
C   -0.440   15.378   22.454
C   -0.610   15.223   23.954
C   -2.190   17.142   21.312
C   1.001   15.136   22.094
C   2.117   15.972   22.835
N   -1.129   14.664   26.895
C   -0.935   13.707   25.962
C   -1.075   12.388   26.612
C   -1.393   12.660   27.930
C   -1.467   14.088   28.050
C   -0.934   11.000   26.018
C   -1.488   12.097   29.255
O   -1.345   10.973   29.673
C   -1.959   13.276   30.217
C   -1.075   13.148   31.373
O   0.150   13.226   31.373
O   -1.928   12.858   32.447
C   -1.092   12.308   33.559
C   0.273   16.851   36.629
C   -0.103   17.525   37.924
C   -0.207   17.012   39.169
C   -0.069   15.488   39.393
C   -0.548   17.966   40.348
C   0.595   18.283   41.290
C   1.529   19.354   40.655
C   1.452   20.615   41.542
C   0.361   21.654   40.981
C   2.862   21.188   41.588
C   3.023   22.393   42.646
C   4.098   22.122   43.696
C   3.552   22.266   45.118
C   4.751   22.413   46.145
C   2.587   21.124   45.561
C   1.413   21.679   46.296
C   0.136   21.973   45.358
C   -1.032   20.972   45.481
C   -1.649   20.683   44.160
C   -2.111   21.579   46.464
H   -2.046   20.219   29.322
H   -1.474   19.390   23.038
H   -0.542   13.070   23.943
H   -3.272   16.090   31.503
H   -2.364   18.645   31.375
H   -4.759   18.964   31.340
H   -4.964   17.380   30.512
H   -4.567   18.665   29.579
H   -0.713   17.414   32.259
H   -0.576   15.739   31.688
H   -2.295   15.286   33.717
H   -2.277   17.110   33.733
H   -3.065   22.476   27.417
H   -1.413   23.245   27.195
H   -1.696   22.250   28.542
H   -0.809   23.760   25.155
H   -2.545   23.506   24.901
H   -1.695   23.900   23.545
H   -0.099   17.438   21.904
H   -1.013   14.761   21.762
H   -2.906   17.776   21.834
H   -2.685   16.176   21.209
H   -1.789   17.624   20.420
H   1.002   15.483   21.061
H   1.272   14.081   22.057
H   2.812   15.394   23.445
H   1.742   16.740   23.511
H   2.781   16.453   22.117
H   -0.463   11.049   25.037
H   -1.979   10.729   25.867
H   -0.315   10.327   26.611
H   -3.002   13.000   30.376
H   -0.923   11.260   33.309
H   -1.682   12.411   34.470
H   -0.205   12.896   33.794
H   1.014   17.489   36.146
H   0.781   15.929   36.911
H   -0.228   18.600   37.791
H   0.678   15.018   38.754
H   -1.071   15.122   39.166
H   0.241   15.233   40.406
H   -1.340   17.444   40.885
H   -1.056   18.852   39.966
H   1.271   17.487   41.601
H   0.103   18.599   42.210
H   1.106   19.649   39.694
H   2.540   18.965   40.541
H   1.106   20.541   42.573
H   -0.377   21.924   41.737
H   -0.186   21.318   40.100
H   0.779   22.569   40.560
H   3.067   21.668   40.631
H   3.505   20.363   41.894
H   2.078   22.582   43.154
H   3.419   23.246   42.094
H   4.868   22.868   43.499
H   4.464   21.098   43.631
H   3.137   23.273   45.068
H   5.034   23.447   46.339
H   5.699   21.999   45.800
H   4.381   22.024   47.093
H   3.103   20.419   46.213
H   2.217   20.637   44.659
H   1.729   22.581   46.819
H   1.102   20.973   47.066
H   0.552   22.008   44.352
H   -0.156   23.009   45.525
H   -0.885   19.958   45.854
H   -1.359   21.353   43.350
H   -2.729   20.809   44.233
H   -1.366   19.656   43.929
H   -2.661   20.774   46.950
H   -2.783   22.292   45.987
H   -1.407   22.026   47.166

