%nproc=24
%mem=75GB
#p blyp/Def2SVP td=(nstates=5)

step_351_chromophore_16 TDDFT with blyp functional

0 1
Mg   40.247   41.278   27.287
C   39.491   43.667   29.772
C   41.172   39.023   29.800
C   41.442   39.144   24.917
C   39.598   43.625   24.813
N   40.387   41.371   29.569
C   39.979   42.436   30.385
C   39.902   42.073   31.885
C   40.520   40.629   31.878
C   40.724   40.298   30.329
C   41.671   40.367   32.904
C   38.443   42.151   32.564
C   38.150   43.278   33.621
C   37.483   42.966   34.967
O   36.419   42.308   34.972
O   38.116   43.503   36.100
N   41.158   39.385   27.390
C   41.388   38.639   28.457
C   41.824   37.272   28.105
C   42.092   37.361   26.713
C   41.559   38.674   26.298
C   42.130   36.115   29.108
C   42.639   36.334   25.779
O   42.849   36.517   24.543
C   42.826   34.915   26.228
N   40.620   41.412   25.173
C   41.042   40.367   24.367
C   40.958   40.688   22.910
C   40.151   42.040   22.919
C   40.139   42.448   24.383
C   42.268   40.695   22.047
C   38.648   41.919   22.426
C   37.848   40.815   23.246
N   39.729   43.246   27.261
C   39.456   44.045   26.173
C   39.094   45.339   26.656
C   39.101   45.274   28.064
C   39.459   43.942   28.368
C   38.782   46.557   25.851
C   38.931   46.018   29.290
O   38.782   47.205   29.574
C   39.204   44.932   30.445
C   40.269   45.480   31.311
O   41.481   45.257   31.251
O   39.637   46.197   32.331
C   40.470   46.866   33.303
C   37.326   43.505   37.316
C   37.935   42.524   38.355
C   37.684   42.468   39.694
C   36.698   43.324   40.495
C   38.431   41.481   40.553
C   38.327   40.012   40.225
C   37.152   39.339   41.050
C   37.655   38.654   42.331
C   38.415   37.320   42.152
C   36.551   38.622   43.391
C   36.963   39.323   44.768
C   37.866   38.449   45.703
C   37.836   38.753   47.235
C   39.271   39.071   47.729
C   37.340   37.426   47.971
C   35.892   36.954   47.633
C   35.844   35.644   46.790
C   34.751   35.762   45.709
C   35.045   34.690   44.558
C   33.425   35.433   46.415
H   41.383   38.210   30.498
H   41.720   38.460   24.112
H   39.352   44.361   24.044
H   40.556   42.782   32.393
H   39.805   39.911   32.281
H   42.622   40.214   32.395
H   41.416   39.498   33.511
H   41.814   41.270   33.499
H   38.278   41.201   33.073
H   37.724   42.123   31.745
H   37.440   43.955   33.145
H   38.979   43.888   33.981
H   41.695   35.151   28.843
H   41.817   36.360   30.123
H   43.216   36.032   29.137
H   43.423   34.844   27.137
H   43.351   34.372   25.442
H   41.806   34.587   26.426
H   40.327   39.962   22.395
H   40.748   42.839   22.479
H   42.464   41.591   21.458
H   42.256   39.829   21.385
H   43.125   40.469   22.682
H   38.756   41.482   21.434
H   38.115   42.869   22.393
H   38.295   40.648   24.226
H   37.906   39.867   22.712
H   36.844   41.210   23.400
H   38.226   46.347   24.937
H   39.725   47.005   25.539
H   38.095   47.147   26.457
H   38.335   44.846   31.098
H   41.359   47.383   32.943
H   40.658   46.256   34.186
H   39.797   47.670   33.601
H   36.269   43.239   37.323
H   37.399   44.537   37.657
H   38.723   41.967   37.847
H   36.215   42.753   41.288
H   35.947   43.813   39.874
H   37.299   44.078   41.002
H   38.187   41.598   41.609
H   39.508   41.631   40.478
H   39.318   39.706   40.560
H   38.290   40.017   39.135
H   36.633   38.638   40.396
H   36.482   40.183   41.210
H   38.457   39.345   42.590
H   39.456   37.497   42.421
H   38.348   37.080   41.091
H   37.968   36.434   42.603
H   36.349   37.554   43.478
H   35.655   39.160   43.081
H   36.128   39.719   45.345
H   37.558   40.202   44.521
H   38.868   38.654   45.329
H   37.613   37.407   45.507
H   37.234   39.630   47.470
H   40.007   39.441   47.015
H   39.638   38.157   48.195
H   39.277   39.861   48.481
H   37.395   37.598   49.046
H   38.012   36.605   47.721
H   35.358   37.775   47.154
H   35.347   36.819   48.567
H   35.610   34.840   47.488
H   36.796   35.354   46.346
H   34.773   36.719   45.187
H   34.425   34.866   43.679
H   35.127   33.724   45.056
H   36.065   34.864   44.214
H   32.629   35.951   45.880
H   33.392   35.862   47.416
H   33.174   34.373   46.436

