%nproc=24
%mem=75GB
#p cam-b3lyp/Def2SVP td=(nstates=5)

step_301_chromophore_4 TDDFT with cam-b3lyp functional

0 1
Mg   8.770   3.338   27.830
C   10.115   2.013   30.665
C   7.221   5.753   29.702
C   7.045   4.341   25.054
C   10.063   0.655   26.018
N   8.791   3.881   29.939
C   9.471   3.257   30.924
C   9.269   3.834   32.358
C   8.319   5.013   32.059
C   8.105   4.938   30.491
C   7.032   5.137   32.887
C   10.636   4.224   33.073
C   10.511   5.266   34.194
C   11.228   4.877   35.504
O   12.351   5.195   35.803
O   10.379   4.244   36.347
N   7.408   4.929   27.402
C   6.884   5.762   28.346
C   6.054   6.749   27.696
C   5.986   6.419   26.325
C   6.784   5.161   26.160
C   5.438   7.998   28.289
C   5.167   7.035   25.245
O   5.344   6.772   24.061
C   4.085   8.156   25.580
N   8.532   2.613   25.844
C   7.799   3.219   24.895
C   7.894   2.423   23.594
C   9.053   1.507   23.817
C   9.249   1.557   25.349
C   6.583   1.626   23.158
C   10.362   1.887   23.020
C   11.326   0.724   22.825
N   10.040   1.738   28.171
C   10.383   0.712   27.393
C   11.164   -0.244   28.184
C   11.077   0.259   29.439
C   10.312   1.414   29.380
C   11.759   -1.563   27.781
C   11.572   -0.022   30.787
O   12.401   -0.812   31.174
C   10.941   1.116   31.602
C   10.259   0.518   32.803
O   9.213   -0.122   32.732
O   11.098   0.842   33.894
C   10.500   0.237   35.101
C   10.966   3.730   37.584
C   10.613   4.661   38.771
C   11.138   4.721   40.003
C   11.959   3.573   40.565
C   10.595   5.663   41.033
C   9.061   5.510   41.477
C   8.304   6.883   41.570
C   8.415   7.516   42.962
C   7.124   7.444   43.884
C   8.861   9.022   42.838
C   9.583   9.492   44.088
C   9.387   10.976   44.473
C   10.096   11.379   45.775
C   10.983   12.517   45.437
C   9.136   11.605   46.934
C   9.129   10.430   47.942
C   7.753   9.967   48.441
C   7.418   8.498   48.010
C   5.941   8.366   47.659
C   7.916   7.518   49.105
H   6.801   6.628   30.203
H   6.452   4.655   24.192
H   10.448   -0.241   25.527
H   8.746   3.073   32.938
H   8.778   5.990   32.209
H   6.147   5.012   32.264
H   7.006   6.132   33.331
H   6.873   4.433   33.704
H   11.274   4.598   32.271
H   11.080   3.363   33.571
H   9.455   5.333   34.457
H   10.783   6.208   33.718
H   6.044   8.349   29.124
H   4.418   7.749   28.580
H   5.419   8.907   27.689
H   3.629   7.894   26.535
H   3.557   8.319   24.640
H   4.709   9.043   25.682
H   8.112   3.192   22.852
H   8.880   0.474   23.514
H   5.747   2.252   22.845
H   6.266   0.929   23.933
H   6.781   0.967   22.312
H   10.924   2.624   23.595
H   10.182   2.383   22.066
H   12.003   0.708   23.679
H   11.877   0.959   21.914
H   10.734   -0.190   22.786
H   11.431   -1.970   26.825
H   11.589   -2.375   28.489
H   12.839   -1.425   27.735
H   11.730   1.771   31.971
H   9.888   -0.633   34.866
H   9.983   0.980   35.708
H   11.265   -0.200   35.744
H   12.049   3.652   37.488
H   10.568   2.726   37.726
H   9.789   5.345   38.566
H   12.263   2.825   39.834
H   11.443   3.106   41.404
H   12.884   4.062   40.871
H   10.838   6.680   40.724
H   11.208   5.657   41.935
H   9.132   5.176   42.512
H   8.581   4.749   40.862
H   7.297   6.548   41.321
H   8.635   7.554   40.778
H   9.174   7.054   43.594
H   7.204   6.668   44.646
H   6.333   7.227   43.167
H   6.859   8.440   44.236
H   8.045   9.703   42.594
H   9.609   9.097   42.048
H   10.655   9.353   43.946
H   9.325   8.803   44.892
H   8.309   11.021   44.627
H   9.667   11.636   43.652
H   10.731   10.526   46.013
H   11.820   12.566   46.134
H   10.551   13.499   45.246
H   11.450   12.206   44.502
H   8.121   11.895   46.664
H   9.574   12.430   47.495
H   9.688   10.662   48.848
H   9.726   9.632   47.501
H   6.912   10.648   48.306
H   7.870   10.016   49.524
H   7.959   8.311   47.083
H   5.815   8.272   46.580
H   5.296   9.195   47.950
H   5.391   7.469   47.946
H   8.195   7.999   50.042
H   8.622   6.867   48.588
H   7.119   6.818   49.355

