%nproc=24
%mem=75GB
#p PBE1PBE/Def2SVP td=(nstates=5)

step_1201_chromophore_14 TDDFT with PBE1PBE functional

0 1
Mg   46.983   45.711   43.832
C   43.603   44.747   43.480
C   47.827   42.453   42.571
C   50.076   46.620   43.258
C   45.862   48.996   44.070
N   45.875   43.917   43.100
C   44.497   43.739   43.202
C   44.075   42.268   42.955
C   45.464   41.578   42.755
C   46.463   42.735   42.755
C   45.698   40.432   43.814
C   42.986   41.922   41.787
C   43.207   42.547   40.396
C   43.026   41.644   39.171
O   42.595   40.505   39.091
O   43.716   42.285   38.175
N   48.762   44.613   43.200
C   48.889   43.346   42.814
C   50.268   43.013   42.578
C   51.002   44.222   42.700
C   49.958   45.205   43.066
C   50.789   41.635   42.254
C   52.495   44.419   42.445
O   53.194   43.450   42.149
C   53.103   45.813   42.621
N   47.785   47.503   43.571
C   49.123   47.626   43.451
C   49.536   49.112   43.501
C   48.087   49.812   43.465
C   47.188   48.734   43.786
C   50.288   49.488   44.798
C   47.726   50.417   42.040
C   48.015   51.975   41.905
N   45.122   46.743   43.956
C   44.816   48.076   44.064
C   43.353   48.226   44.147
C   42.863   46.929   44.006
C   43.922   46.101   43.786
C   42.487   49.483   44.147
C   41.621   46.170   43.920
O   40.440   46.572   43.857
C   42.026   44.709   43.482
C   41.491   43.742   44.518
O   40.753   42.744   44.384
O   41.886   44.154   45.726
C   41.298   43.477   46.872
C   43.743   41.558   36.877
C   44.523   42.379   35.910
C   45.579   42.004   35.119
C   45.975   40.499   34.949
C   46.434   43.088   34.465
C   46.253   43.146   32.916
C   45.663   44.445   32.392
C   46.039   44.694   30.886
C   46.207   46.248   30.672
C   44.941   44.293   29.948
C   45.094   43.001   29.193
C   44.265   42.995   27.875
C   45.089   43.598   26.656
C   44.275   44.689   25.921
C   45.532   42.315   25.757
C   46.815   42.659   24.935
C   46.717   42.479   23.409
C   47.209   43.652   22.590
C   46.621   43.378   21.180
C   48.749   43.684   22.469
H   48.005   41.424   42.252
H   51.113   46.935   43.389
H   45.493   50.023   44.105
H   43.724   41.838   43.893
H   45.414   41.176   41.743
H   46.744   40.362   44.110
H   45.545   39.491   43.286
H   45.175   40.464   44.770
H   41.985   42.072   42.190
H   43.034   40.834   41.746
H   44.231   42.918   40.432
H   42.542   43.409   40.347
H   51.457   41.694   41.395
H   49.932   40.985   42.077
H   51.316   41.198   43.101
H   53.166   46.087   43.674
H   52.575   46.544   42.010
H   54.152   45.712   42.340
H   50.120   49.497   42.665
H   48.089   50.619   44.197
H   50.716   48.599   45.260
H   49.750   50.093   45.527
H   51.120   50.112   44.473
H   46.637   50.369   42.027
H   48.213   49.956   41.181
H   47.162   52.648   41.820
H   48.663   52.018   41.030
H   48.743   52.250   42.669
H   42.183   49.731   43.130
H   43.074   50.298   44.571
H   41.656   49.332   44.836
H   41.575   44.566   42.500
H   41.574   42.442   46.669
H   40.210   43.419   46.861
H   41.580   43.898   47.837
H   42.740   41.262   36.571
H   44.350   40.666   37.031
H   44.331   43.438   36.080
H   46.704   40.409   34.144
H   45.201   39.795   34.641
H   46.638   40.188   35.756
H   47.472   42.977   34.779
H   46.180   44.059   34.889
H   45.500   42.401   32.660
H   47.243   42.914   32.524
H   46.115   45.207   33.027
H   44.584   44.481   32.540
H   47.001   44.218   30.696
H   45.260   46.726   30.926
H   46.551   46.422   29.652
H   46.925   46.491   31.454
H   44.704   45.053   29.204
H   43.972   44.286   30.449
H   44.826   42.254   29.940
H   46.137   42.772   28.977
H   43.426   43.657   28.088
H   43.978   41.968   27.648
H   45.996   44.059   27.048
H   43.199   44.747   26.088
H   44.347   44.447   24.861
H   44.759   45.665   25.966
H   44.756   41.991   25.064
H   45.789   41.477   26.405
H   47.663   42.056   25.261
H   47.115   43.689   25.127
H   45.724   42.082   23.196
H   47.475   41.718   23.226
H   46.853   44.598   22.998
H   46.032   42.461   21.161
H   47.382   43.366   20.400
H   45.964   44.216   20.946
H   49.134   43.071   23.284
H   49.112   44.686   22.698
H   49.095   43.362   21.487

