%nproc=24
%mem=75GB
#p blyp/Def2SVP td=(nstates=5)

step_651_chromophore_26 TDDFT with blyp functional

0 1
Mg   -9.555   18.356   42.544
C   -5.881   17.970   42.459
C   -8.824   21.842   41.764
C   -12.667   18.798   42.220
C   -9.855   14.864   42.301
N   -7.610   19.636   42.006
C   -6.272   19.285   42.114
C   -5.327   20.456   41.949
C   -6.322   21.692   41.794
C   -7.699   20.990   41.874
C   -6.112   22.953   42.700
C   -4.239   20.309   40.831
C   -4.829   19.691   39.476
C   -4.239   20.132   38.170
O   -3.019   20.026   37.857
O   -5.195   20.777   37.406
N   -10.699   20.121   42.254
C   -10.191   21.392   41.845
C   -11.286   22.198   41.641
C   -12.481   21.413   41.831
C   -12.020   20.086   42.148
C   -11.110   23.656   41.283
C   -13.923   21.847   41.789
O   -14.195   23.073   41.618
C   -15.111   20.808   41.983
N   -11.013   16.921   42.341
C   -12.286   17.440   42.205
C   -13.273   16.205   41.953
C   -12.365   14.971   41.811
C   -11.024   15.541   42.144
C   -14.278   16.155   43.131
C   -12.244   14.346   40.407
C   -13.039   13.090   40.212
N   -8.227   16.719   42.415
C   -8.560   15.355   42.484
C   -7.300   14.594   42.568
C   -6.243   15.583   42.592
C   -6.861   16.850   42.462
C   -7.177   13.000   42.695
C   -4.775   15.763   42.749
O   -3.915   14.908   42.966
C   -4.544   17.276   42.651
C   -3.746   17.798   43.795
O   -2.808   18.595   43.676
O   -4.297   17.305   44.977
C   -3.658   17.897   46.145
C   -4.953   21.149   36.018
C   -6.101   20.761   35.103
C   -6.408   19.577   34.564
C   -5.771   18.237   34.960
C   -7.489   19.404   33.549
C   -8.944   19.279   34.091
C   -9.826   19.525   32.867
C   -10.688   20.787   32.756
C   -12.160   20.460   32.510
C   -10.159   21.790   31.594
C   -10.151   23.234   32.163
C   -9.625   24.136   31.099
C   -10.501   25.364   30.697
C   -10.116   26.650   31.469
C   -10.417   25.615   29.176
C   -11.611   25.095   28.298
C   -11.033   24.423   26.957
C   -11.525   25.077   25.655
C   -13.023   24.924   25.565
C   -10.638   24.592   24.439
H   -8.574   22.847   41.418
H   -13.749   18.737   42.083
H   -9.967   13.781   42.375
H   -4.775   20.436   42.888
H   -6.209   21.963   40.744
H   -5.387   22.677   43.466
H   -6.956   23.162   43.357
H   -5.757   23.766   42.067
H   -3.473   19.639   41.222
H   -3.975   21.330   40.555
H   -5.915   19.781   39.490
H   -4.512   18.657   39.614
H   -10.273   24.063   41.851
H   -12.050   24.154   41.522
H   -10.864   23.680   40.222
H   -15.016   20.216   42.894
H   -15.218   20.275   41.038
H   -15.976   21.464   42.083
H   -13.798   16.386   41.015
H   -12.586   14.262   42.609
H   -13.947   16.492   44.113
H   -14.594   15.129   43.321
H   -15.173   16.699   42.828
H   -11.197   14.248   40.122
H   -12.783   15.009   39.730
H   -13.208   12.570   41.155
H   -12.404   12.450   39.600
H   -13.931   13.401   39.668
H   -7.066   12.582   41.694
H   -8.089   12.634   43.166
H   -6.329   12.728   43.323
H   -4.017   17.406   41.706
H   -2.733   17.343   46.302
H   -4.270   17.682   47.021
H   -3.377   18.947   46.057
H   -3.982   20.891   35.596
H   -4.978   22.236   36.090
H   -6.508   21.676   34.673
H   -4.960   18.327   35.682
H   -5.378   17.777   34.053
H   -6.437   17.611   35.553
H   -7.223   18.624   32.836
H   -7.520   20.275   32.895
H   -9.150   20.002   34.881
H   -9.156   18.275   34.459
H   -10.394   18.595   32.841
H   -9.236   19.439   31.954
H   -10.628   21.418   33.643
H   -12.228   19.467   32.067
H   -12.663   21.257   31.962
H   -12.730   20.441   33.439
H   -10.825   21.680   30.738
H   -9.170   21.500   31.240
H   -9.402   23.359   32.944
H   -11.171   23.362   32.525
H   -9.462   23.476   30.247
H   -8.649   24.513   31.403
H   -11.564   25.269   30.919
H   -9.328   27.221   30.978
H   -9.829   26.431   32.497
H   -10.913   27.389   31.385
H   -9.435   25.311   28.813
H   -10.394   26.686   28.972
H   -12.225   25.927   27.953
H   -12.139   24.422   28.973
H   -11.336   23.376   26.948
H   -9.943   24.412   26.971
H   -11.232   26.111   25.836
H   -13.380   24.500   24.627
H   -13.419   25.930   25.429
H   -13.656   24.543   26.366
H   -9.965   25.331   24.004
H   -11.298   24.305   23.621
H   -10.035   23.705   24.640

