%nproc=24
%mem=75GB
#p wB97XD/Def2SVP td=(nstates=5)

step_1651_chromophore_9 TDDFT with wB97XD functional

0 1
Mg   37.015   0.635   30.175
C   34.970   1.776   32.685
C   39.629   0.597   32.592
C   39.124   -0.465   27.802
C   34.468   1.032   27.922
N   37.193   0.998   32.467
C   36.187   1.479   33.262
C   36.644   1.408   34.765
C   38.201   1.290   34.567
C   38.364   0.926   33.087
C   38.881   2.617   35.052
C   35.987   0.225   35.489
C   35.616   0.353   36.978
C   36.366   1.422   37.726
O   36.105   2.580   37.771
O   37.523   0.817   38.223
N   39.070   0.104   30.201
C   39.929   0.084   31.282
C   41.194   -0.554   30.946
C   41.023   -0.938   29.579
C   39.689   -0.405   29.140
C   42.307   -0.786   32.054
C   41.983   -1.789   28.714
O   41.642   -2.193   27.634
C   43.342   -2.106   29.227
N   36.827   0.280   28.234
C   37.801   -0.115   27.418
C   37.340   -0.231   25.998
C   35.918   0.327   25.995
C   35.708   0.546   27.493
C   38.231   0.431   24.926
C   34.790   -0.483   25.271
C   34.125   -1.697   26.065
N   35.075   1.182   30.225
C   34.105   1.270   29.246
C   32.909   1.813   29.803
C   33.193   1.931   31.177
C   34.563   1.585   31.373
C   31.729   2.149   29.015
C   32.574   2.240   32.418
O   31.420   2.575   32.745
C   33.746   2.171   33.461
C   33.878   3.510   34.082
O   34.587   4.431   33.689
O   33.099   3.518   35.188
C   32.816   4.884   35.644
C   38.556   1.812   38.535
C   39.102   1.437   39.870
C   38.747   1.873   41.109
C   37.296   2.360   41.456
C   39.638   1.518   42.275
C   40.031   0.045   42.522
C   41.279   -0.109   43.367
C   42.561   -0.202   42.478
C   42.769   -1.688   42.015
C   43.785   0.393   43.093
C   43.762   1.838   43.456
C   45.086   2.520   43.662
C   45.660   3.273   42.339
C   46.719   2.409   41.546
C   46.167   4.683   42.751
C   44.930   5.680   42.941
C   44.872   6.788   41.902
C   43.745   7.800   42.186
C   43.062   8.211   40.822
C   44.339   8.988   42.964
H   40.423   0.647   33.341
H   39.617   -0.887   26.924
H   33.611   1.198   27.265
H   36.287   2.382   35.098
H   38.644   0.529   35.209
H   39.839   2.410   35.530
H   38.204   3.164   35.709
H   39.039   3.192   34.140
H   36.677   -0.618   35.457
H   35.051   0.023   34.970
H   35.669   -0.608   37.489
H   34.548   0.573   36.977
H   42.741   0.198   32.234
H   43.166   -1.309   31.633
H   42.092   -1.239   33.022
H   43.902   -1.184   29.384
H   43.756   -2.697   28.410
H   43.372   -2.684   30.151
H   37.294   -1.264   25.652
H   35.922   1.326   25.561
H   38.923   -0.326   24.558
H   38.816   1.291   25.254
H   37.667   0.732   24.043
H   35.156   -1.100   24.450
H   34.047   0.178   24.825
H   34.717   -1.965   26.941
H   34.136   -2.603   25.458
H   33.114   -1.490   26.414
H   31.727   1.585   28.083
H   31.648   3.219   28.823
H   30.824   1.842   29.538
H   33.440   1.359   34.121
H   32.069   4.770   36.429
H   32.548   5.458   34.757
H   33.655   5.307   36.197
H   38.257   2.855   38.643
H   39.363   1.872   37.805
H   40.089   0.997   39.729
H   36.821   2.641   40.516
H   37.584   3.191   42.100
H   36.669   1.613   41.942
H   39.306   2.002   43.194
H   40.617   1.982   42.155
H   40.130   -0.491   41.578
H   39.170   -0.392   43.027
H   41.163   -0.975   44.018
H   41.237   0.807   43.956
H   42.424   0.396   41.576
H   43.763   -2.112   42.161
H   42.531   -1.683   40.951
H   42.102   -2.449   42.418
H   44.544   0.288   42.318
H   44.184   -0.195   43.919
H   43.197   1.993   44.375
H   43.106   2.215   42.671
H   45.895   1.836   43.916
H   45.013   3.218   44.496
H   44.809   3.411   41.673
H   47.150   1.542   42.046
H   47.576   3.070   41.414
H   46.288   2.088   40.597
H   46.629   5.087   41.850
H   46.857   4.732   43.594
H   45.115   6.208   43.876
H   44.013   5.097   42.855
H   44.811   6.444   40.869
H   45.829   7.308   41.853
H   42.946   7.377   42.795
H   43.270   7.429   40.092
H   43.442   9.104   40.326
H   41.973   8.192   40.831
H   45.352   8.848   43.342
H   43.741   9.172   43.856
H   44.406   9.912   42.388

