%nproc=24
%mem=75GB
#p wB97XD/Def2SVP td=(nstates=5)

step_1451_chromophore_27 TDDFT with wB97XD functional

0 1
Mg   -5.671   24.265   27.047
C   -3.988   26.226   29.472
C   -6.425   22.047   29.635
C   -6.649   22.038   24.798
C   -4.432   26.381   24.544
N   -5.102   24.091   29.269
C   -4.617   25.094   30.061
C   -4.840   24.774   31.521
C   -5.255   23.275   31.477
C   -5.695   23.205   30.009
C   -4.094   22.326   31.843
C   -5.940   25.760   32.007
C   -5.650   26.337   33.407
C   -6.801   26.120   34.436
O   -7.899   26.659   34.344
O   -6.522   25.156   35.340
N   -6.545   22.363   27.181
C   -6.760   21.584   28.288
C   -7.460   20.386   27.947
C   -7.547   20.410   26.504
C   -6.860   21.647   26.125
C   -8.061   19.483   28.959
C   -8.166   19.328   25.529
O   -8.167   19.410   24.291
C   -8.871   18.168   26.076
N   -5.560   24.201   24.988
C   -6.047   23.213   24.239
C   -5.903   23.437   22.771
C   -5.477   24.923   22.668
C   -5.197   25.238   24.168
C   -4.785   22.456   22.197
C   -6.451   25.903   22.023
C   -6.699   25.994   20.579
N   -4.355   25.905   26.918
C   -3.896   26.631   25.888
C   -3.075   27.729   26.361
C   -3.084   27.578   27.772
C   -3.919   26.488   28.070
C   -2.373   28.743   25.580
C   -2.485   28.088   29.039
O   -1.785   29.061   29.191
C   -3.149   27.261   30.156
C   -2.078   26.684   31.033
O   -1.137   26.046   30.696
O   -2.329   27.116   32.308
C   -1.331   26.864   33.354
C   -7.489   24.948   36.408
C   -8.523   23.907   36.071
C   -8.877   22.763   36.702
C   -8.264   22.283   38.113
C   -9.904   21.833   36.075
C   -11.292   21.886   36.558
C   -11.881   20.581   37.148
C   -12.424   19.681   35.981
C   -13.791   20.169   35.367
C   -12.505   18.219   36.348
C   -11.119   17.498   36.410
C   -10.773   17.004   37.812
C   -9.288   16.523   37.877
C   -8.753   16.731   39.277
C   -9.129   15.009   37.554
C   -7.963   14.677   36.576
C   -6.810   13.858   37.301
C   -5.628   14.656   37.748
C   -4.539   14.719   36.616
C   -5.018   14.167   39.119
H   -6.662   21.394   30.478
H   -6.976   21.333   24.031
H   -4.070   27.094   23.801
H   -3.960   24.860   32.158
H   -6.043   23.162   32.221
H   -3.940   21.541   31.102
H   -4.489   21.811   32.718
H   -3.184   22.852   32.134
H   -6.847   25.157   32.060
H   -6.175   26.579   31.327
H   -5.321   27.373   33.324
H   -4.776   25.838   33.826
H   -9.150   19.480   28.945
H   -7.735   19.785   29.954
H   -7.654   18.481   28.819
H   -9.380   17.594   25.302
H   -9.585   18.506   26.828
H   -8.148   17.585   26.647
H   -6.947   23.350   22.469
H   -4.564   24.968   22.074
H   -4.544   21.754   22.995
H   -3.896   23.005   21.886
H   -5.257   21.926   21.369
H   -6.147   26.913   22.297
H   -7.431   25.616   22.403
H   -7.758   25.983   20.324
H   -6.189   25.173   20.076
H   -6.289   26.867   20.071
H   -2.893   28.961   24.647
H   -1.378   28.389   25.308
H   -2.306   29.625   26.217
H   -3.799   27.909   30.743
H   -0.766   25.937   33.263
H   -1.881   26.980   34.288
H   -0.590   27.662   33.312
H   -8.025   25.836   36.743
H   -6.896   24.609   37.257
H   -9.049   24.273   35.190
H   -9.139   22.332   38.762
H   -7.518   22.986   38.482
H   -7.791   21.308   37.996
H   -9.309   20.928   36.198
H   -9.985   21.935   34.993
H   -11.943   22.280   35.778
H   -11.385   22.605   37.372
H   -12.690   20.903   37.805
H   -11.219   19.927   37.715
H   -11.742   19.746   35.133
H   -14.423   20.785   36.007
H   -14.449   19.313   35.222
H   -13.563   20.668   34.425
H   -13.135   17.738   35.599
H   -12.809   18.048   37.380
H   -10.416   18.202   35.965
H   -11.102   16.620   35.764
H   -11.434   16.154   37.976
H   -10.947   17.783   38.554
H   -8.631   17.147   37.271
H   -9.548   16.639   40.017
H   -8.323   17.732   39.266
H   -7.943   16.045   39.524
H   -10.066   14.661   37.119
H   -8.866   14.464   38.461
H   -7.454   15.570   36.214
H   -8.442   14.071   35.807
H   -6.614   12.937   36.751
H   -7.227   13.288   38.132
H   -5.967   15.686   37.863
H   -4.452   13.903   35.899
H   -3.548   14.903   37.029
H   -4.791   15.614   36.047
H   -5.676   13.538   39.719
H   -4.999   15.015   39.803
H   -4.030   13.723   38.998

