%nproc=24
%mem=50gb
#p ZINDO=(nstates=5)

step_401_chromophore_1 ZINDO

0 1
Mg   -2.143   17.192   27.554
C   -2.229   15.150   30.265
C   -2.605   19.948   29.524
C   -2.412   19.218   24.710
C   -2.121   14.429   25.414
N   -2.405   17.474   29.633
C   -2.293   16.503   30.602
C   -2.363   17.210   32.002
C   -2.725   18.689   31.731
C   -2.577   18.710   30.221
C   -3.869   19.264   32.468
C   -0.914   17.091   32.785
C   -0.582   18.030   34.020
C   0.324   17.520   35.113
O   1.476   17.712   35.268
O   -0.458   16.781   35.989
N   -2.297   19.335   27.197
C   -2.481   20.264   28.135
C   -2.404   21.600   27.532
C   -2.328   21.383   26.123
C   -2.356   19.951   25.945
C   -2.402   22.886   28.286
C   -2.218   22.491   25.000
O   -2.342   22.208   23.813
C   -2.149   23.993   25.406
N   -2.384   16.822   25.499
C   -2.517   17.793   24.512
C   -2.588   17.205   23.034
C   -1.954   15.810   23.309
C   -2.123   15.668   24.848
C   -3.928   17.232   22.248
C   -0.495   15.767   22.811
C   0.595   16.672   23.336
N   -2.149   15.185   27.740
C   -2.176   14.157   26.818
C   -2.351   12.881   27.477
C   -2.321   13.190   28.859
C   -2.193   14.575   28.925
C   -2.405   11.510   26.797
C   -2.316   12.694   30.198
O   -2.390   11.535   30.569
C   -2.237   13.896   31.110
C   -1.132   13.796   32.097
O   0.067   14.045   31.943
O   -1.575   13.326   33.280
C   -0.672   13.276   34.454
C   0.228   16.273   37.146
C   -0.046   17.145   38.404
C   -0.255   16.763   39.660
C   -0.109   15.364   40.174
C   -0.575   17.795   40.694
C   0.503   18.292   41.628
C   1.278   19.601   41.113
C   1.141   20.832   42.100
C   -0.127   21.707   41.661
C   2.336   21.749   42.067
C   2.491   22.592   43.369
C   3.386   21.929   44.448
C   4.043   23.036   45.432
C   5.574   23.157   45.046
C   3.844   22.698   46.950
C   2.352   23.070   47.287
C   1.392   21.757   47.290
C   0.229   21.932   48.281
C   0.745   21.741   49.682
C   -0.764   20.864   47.898
H   -2.589   20.863   30.120
H   -2.416   19.833   23.807
H   -2.215   13.571   24.744
H   -3.197   16.848   32.602
H   -1.942   19.396   32.003
H   -3.558   20.098   33.098
H   -4.231   18.505   33.161
H   -4.590   19.617   31.731
H   -0.185   17.327   32.010
H   -0.691   16.079   33.123
H   -1.511   18.333   34.503
H   -0.069   18.931   33.681
H   -2.426   22.742   29.366
H   -3.338   23.329   27.946
H   -1.531   23.506   28.072
H   -2.250   24.578   24.492
H   -1.201   24.178   25.910
H   -3.039   24.316   25.946
H   -1.837   17.729   22.444
H   -2.490   15.004   22.809
H   -4.649   17.916   22.696
H   -4.342   16.227   22.160
H   -3.760   17.731   21.294
H   -0.673   15.937   21.749
H   -0.218   14.743   23.060
H   1.198   16.102   24.042
H   0.184   17.560   23.815
H   1.269   17.098   22.593
H   -1.544   11.442   26.133
H   -3.337   11.455   26.234
H   -2.528   10.841   27.649
H   -3.110   13.946   31.761
H   -0.427   14.261   34.851
H   0.249   12.834   34.074
H   -1.111   12.659   35.238
H   1.302   16.125   37.038
H   0.025   15.206   37.238
H   -0.106   18.192   38.108
H   -1.057   15.001   40.571
H   0.625   15.289   40.976
H   0.170   14.682   39.370
H   -1.326   17.388   41.372
H   -1.060   18.712   40.361
H   1.247   17.500   41.702
H   0.221   18.536   42.652
H   1.047   20.037   40.141
H   2.326   19.354   41.281
H   0.833   20.490   43.088
H   -0.567   21.463   40.693
H   0.124   22.762   41.771
H   -0.926   21.571   42.389
H   2.248   22.372   41.177
H   3.279   21.219   41.934
H   1.566   22.924   43.841
H   2.980   23.492   42.996
H   4.150   21.303   43.988
H   2.776   21.183   44.957
H   3.486   23.936   45.172
H   5.664   23.902   44.255
H   6.046   22.283   44.597
H   6.280   23.370   45.848
H   4.525   23.225   47.620
H   4.118   21.643   46.923
H   1.923   23.842   46.648
H   2.367   23.488   48.294
H   1.869   20.792   47.467
H   0.903   21.639   46.323
H   -0.192   22.924   48.116
H   0.443   20.907   50.317
H   0.467   22.633   50.245
H   1.822   21.595   49.769
H   -0.426   19.842   47.724
H   -1.517   21.063   47.136
H   -1.264   20.778   48.863

