%nproc=24
%mem=50gb
#p ZINDO=(nstates=5)

step_1201_chromophore_9 ZINDO

0 1
Mg   35.866   1.563   30.446
C   33.453   2.253   32.805
C   38.240   1.870   32.929
C   38.258   1.153   28.064
C   33.456   1.973   27.858
N   35.793   2.068   32.593
C   34.703   2.155   33.383
C   35.035   2.247   34.824
C   36.584   2.596   34.835
C   36.883   2.101   33.370
C   36.823   4.099   35.154
C   34.639   1.004   35.565
C   33.952   1.095   36.910
C   34.537   2.242   37.777
O   34.155   3.417   37.910
O   35.606   1.769   38.527
N   37.937   1.318   30.548
C   38.794   1.418   31.627
C   40.195   1.062   31.212
C   40.184   0.920   29.824
C   38.737   1.185   29.391
C   41.311   1.096   32.255
C   41.350   0.586   28.885
O   41.206   0.427   27.706
C   42.771   0.121   29.490
N   35.874   1.811   28.224
C   36.958   1.336   27.568
C   36.630   1.228   26.079
C   35.104   1.464   25.982
C   34.749   1.708   27.402
C   37.575   2.071   25.100
C   34.342   0.349   25.097
C   33.700   -0.765   25.964
N   33.873   2.131   30.280
C   33.015   2.134   29.182
C   31.678   2.351   29.676
C   31.789   2.394   31.070
C   33.124   2.317   31.389
C   30.465   2.590   28.731
C   31.054   2.535   32.267
O   29.845   2.716   32.515
C   32.153   2.526   33.480
C   32.059   3.873   34.057
O   32.697   4.854   33.735
O   31.254   3.803   35.196
C   31.275   5.012   36.156
C   36.376   2.798   39.221
C   37.522   2.218   39.881
C   37.770   1.885   41.146
C   36.765   2.116   42.321
C   39.214   1.567   41.558
C   39.429   0.287   42.344
C   39.962   0.605   43.718
C   41.485   0.967   43.753
C   42.351   0.203   44.732
C   41.654   2.529   44.024
C   42.685   3.174   43.089
C   43.879   3.748   43.951
C   44.359   5.006   43.329
C   45.850   5.285   43.665
C   43.359   6.205   43.818
C   42.656   6.820   42.546
C   42.513   8.354   42.462
C   43.542   9.002   41.405
C   43.946   10.437   41.824
C   42.850   8.974   39.981
H   38.953   2.070   33.732
H   39.019   0.879   27.329
H   32.682   1.777   27.112
H   34.447   3.081   35.206
H   37.138   1.953   35.518
H   37.099   4.150   36.208
H   35.889   4.649   35.039
H   37.624   4.458   34.509
H   35.509   0.407   35.839
H   34.233   0.332   34.809
H   34.037   0.127   37.405
H   32.928   1.249   36.570
H   41.768   0.117   32.399
H   40.843   1.375   33.199
H   42.085   1.814   31.983
H   43.281   1.020   29.837
H   43.416   -0.305   28.722
H   42.652   -0.682   30.217
H   36.791   0.169   25.873
H   34.936   2.419   25.483
H   38.505   2.388   25.571
H   37.044   2.983   24.828
H   37.827   1.531   24.187
H   34.972   -0.049   24.302
H   33.432   0.769   24.668
H   32.638   -0.841   25.730
H   33.835   -0.645   27.039
H   34.155   -1.740   25.793
H   30.067   1.646   28.357
H   30.733   3.159   27.841
H   29.643   3.105   29.227
H   31.946   1.778   34.246
H   30.255   5.345   36.352
H   31.827   5.857   35.744
H   31.782   4.730   37.079
H   35.794   3.298   39.996
H   36.754   3.475   38.455
H   38.357   2.110   39.189
H   37.273   2.142   43.284
H   36.022   1.319   42.311
H   36.278   3.080   42.169
H   39.593   2.475   42.026
H   39.918   1.528   40.727
H   40.139   -0.317   41.778
H   38.492   -0.260   42.444
H   39.898   -0.329   44.278
H   39.288   1.306   44.211
H   41.889   0.749   42.764
H   42.973   -0.469   44.140
H   41.847   -0.352   45.523
H   43.014   0.866   45.288
H   41.907   2.752   45.061
H   40.759   3.085   43.746
H   42.163   3.976   42.567
H   43.204   2.531   42.379
H   44.624   2.964   44.088
H   43.509   3.974   44.951
H   44.257   4.856   42.254
H   46.225   4.755   44.540
H   46.039   6.358   43.693
H   46.459   4.834   42.882
H   43.869   7.007   44.352
H   42.547   5.863   44.460
H   41.616   6.501   42.601
H   43.142   6.427   41.652
H   42.746   8.729   43.458
H   41.512   8.730   42.250
H   44.462   8.428   41.519
H   44.194   11.133   41.023
H   44.796   10.403   42.506
H   43.106   10.879   42.359
H   43.632   8.648   39.295
H   42.485   9.959   39.691
H   41.975   8.324   40.005

