%nproc=24
%mem=75GB
#p cam-b3lyp/Def2SVP td=(nstates=5)

step_51_chromophore_27 TDDFT with cam-b3lyp functional

0 1
Mg   -5.573   24.671   27.637
C   -3.626   26.449   29.840
C   -6.464   22.485   30.203
C   -6.924   22.730   25.384
C   -3.872   26.471   25.058
N   -5.063   24.528   29.731
C   -4.402   25.482   30.432
C   -4.666   25.350   32.021
C   -5.353   23.893   32.076
C   -5.705   23.640   30.584
C   -4.459   22.740   32.763
C   -5.649   26.361   32.570
C   -5.540   26.732   34.037
C   -5.544   25.617   35.145
O   -4.592   24.872   35.477
O   -6.816   25.615   35.750
N   -6.606   22.884   27.818
C   -6.851   22.089   28.906
C   -7.566   20.944   28.575
C   -7.745   20.992   27.150
C   -7.057   22.261   26.733
C   -7.933   19.787   29.535
C   -8.522   20.095   26.262
O   -8.718   20.384   25.073
C   -9.045   18.887   26.798
N   -5.344   24.513   25.501
C   -6.273   23.797   24.833
C   -6.451   24.234   23.375
C   -5.383   25.364   23.247
C   -4.747   25.399   24.669
C   -6.401   23.163   22.203
C   -5.905   26.773   22.759
C   -5.256   27.309   21.362
N   -4.217   26.320   27.449
C   -3.560   26.955   26.333
C   -2.751   28.069   26.730
C   -2.720   27.899   28.164
C   -3.609   26.817   28.508
C   -2.104   29.061   25.845
C   -2.234   28.384   29.442
O   -1.497   29.316   29.735
C   -2.746   27.481   30.547
C   -1.572   26.963   31.252
O   -0.766   26.130   30.765
O   -1.582   27.444   32.562
C   -0.598   27.015   33.582
C   -7.009   24.904   37.040
C   -7.924   23.727   36.664
C   -8.625   22.974   37.582
C   -8.440   23.101   39.090
C   -9.469   21.825   37.187
C   -11.016   21.950   37.165
C   -11.713   21.714   38.528
C   -13.027   20.805   38.369
C   -14.315   21.521   38.839
C   -12.820   19.454   39.042
C   -11.872   18.496   38.232
C   -11.180   17.532   39.159
C   -9.604   17.875   39.312
C   -9.357   19.056   40.300
C   -8.874   16.650   39.810
C   -8.354   15.841   38.632
C   -6.891   16.272   38.322
C   -5.797   15.592   39.158
C   -4.672   16.522   39.480
C   -5.252   14.346   38.540
H   -6.822   21.873   31.034
H   -7.510   22.175   24.648
H   -3.472   27.172   24.324
H   -3.789   25.325   32.669
H   -6.309   23.973   32.593
H   -3.520   23.184   33.095
H   -4.240   21.874   32.139
H   -5.012   22.253   33.565
H   -6.683   26.039   32.446
H   -5.521   27.316   32.061
H   -6.364   27.400   34.289
H   -4.600   27.272   34.149
H   -7.578   18.814   29.194
H   -9.011   19.738   29.688
H   -7.510   20.019   30.513
H   -8.278   18.157   27.054
H   -9.448   18.492   25.865
H   -9.882   19.043   27.478
H   -7.440   24.680   23.266
H   -4.516   25.095   22.643
H   -6.421   22.199   22.712
H   -5.482   23.269   21.628
H   -7.203   23.337   21.486
H   -5.753   27.529   23.529
H   -6.981   26.675   22.618
H   -5.992   27.697   20.658
H   -4.688   26.519   20.871
H   -4.655   28.161   21.681
H   -2.759   29.479   25.081
H   -1.143   28.726   25.455
H   -1.804   29.908   26.462
H   -3.206   28.220   31.203
H   0.010   27.915   33.672
H   -0.010   26.144   33.291
H   -1.055   26.890   34.564
H   -7.478   25.619   37.715
H   -6.068   24.520   37.436
H   -8.107   23.598   35.597
H   -9.367   23.243   39.645
H   -7.806   23.962   39.304
H   -8.008   22.180   39.484
H   -9.242   20.866   37.654
H   -9.172   21.707   36.145
H   -11.411   21.178   36.504
H   -11.169   23.006   36.945
H   -11.830   22.632   39.103
H   -11.014   21.121   39.117
H   -13.215   20.547   37.327
H   -14.497   22.335   38.137
H   -13.985   22.055   39.730
H   -15.140   20.838   39.042
H   -13.802   18.980   39.040
H   -12.429   19.671   40.036
H   -11.159   19.094   37.664
H   -12.558   17.898   37.632
H   -11.370   16.528   38.779
H   -11.660   17.572   40.137
H   -9.304   18.168   38.307
H   -10.312   19.480   40.612
H   -8.715   19.873   39.970
H   -8.751   18.694   41.130
H   -9.517   16.017   40.422
H   -7.991   16.855   40.417
H   -8.984   15.961   37.751
H   -8.495   14.796   38.911
H   -6.821   17.358   38.270
H   -6.844   15.830   37.327
H   -6.241   15.183   40.065
H   -4.646   16.868   40.513
H   -4.569   17.359   38.789
H   -3.701   16.046   39.348
H   -4.522   14.411   37.734
H   -6.102   13.721   38.267
H   -4.849   13.882   39.441

