%nproc=24
%mem=75GB
#p PBE1PBE/Def2SVP td=(nstates=5)

step_1351_chromophore_8 TDDFT with PBE1PBE functional

0 1
Mg   44.113   2.663   46.827
C   42.157   5.684   46.670
C   41.276   1.058   46.581
C   45.991   -0.033   46.127
C   47.031   4.733   46.179
N   41.950   3.346   46.762
C   41.319   4.508   46.764
C   39.790   4.424   46.482
C   39.578   2.918   46.789
C   41.053   2.401   46.691
C   39.133   2.615   48.208
C   39.326   4.848   45.018
C   37.986   5.536   45.005
C   37.304   5.581   43.614
O   36.190   5.114   43.428
O   38.091   6.228   42.708
N   43.698   0.722   46.363
C   42.423   0.268   46.447
C   42.522   -1.191   46.190
C   43.876   -1.595   46.098
C   44.613   -0.293   46.197
C   41.238   -1.980   46.114
C   44.322   -2.998   45.940
O   43.607   -3.984   46.030
C   45.779   -3.216   45.620
N   46.225   2.411   46.139
C   46.734   1.209   46.078
C   48.310   1.252   45.998
C   48.585   2.700   45.896
C   47.160   3.314   45.974
C   48.976   0.488   47.190
C   49.124   3.036   44.552
C   50.678   2.826   44.491
N   44.530   4.759   46.605
C   45.824   5.389   46.453
C   45.577   6.810   46.607
C   44.161   6.978   46.707
C   43.553   5.682   46.707
C   46.652   7.924   46.651
C   43.050   7.983   46.794
O   43.035   9.192   46.773
C   41.722   7.155   46.553
C   40.790   7.566   47.636
O   40.968   7.456   48.850
O   39.697   8.129   47.025
C   38.596   8.593   47.893
C   37.665   5.979   41.328
C   38.940   5.637   40.623
C   39.201   5.743   39.297
C   38.099   6.426   38.505
C   40.558   5.468   38.577
C   40.501   4.153   37.749
C   41.435   3.001   38.249
C   42.547   2.539   37.325
C   42.819   1.084   37.418
C   43.829   3.321   37.659
C   44.254   4.296   36.494
C   44.974   3.586   35.297
C   44.108   3.723   34.008
C   43.485   2.390   33.433
C   44.807   4.441   32.839
C   43.760   5.050   31.865
C   44.126   4.683   30.415
C   43.252   5.382   29.283
C   44.193   5.949   28.104
C   41.946   4.527   28.946
H   40.369   0.452   46.636
H   46.678   -0.879   46.051
H   47.932   5.349   46.151
H   39.177   4.975   47.195
H   38.794   2.560   46.121
H   39.366   3.424   48.900
H   39.693   1.736   48.529
H   38.055   2.491   48.305
H   39.265   3.972   44.372
H   40.060   5.616   44.774
H   38.044   6.512   45.487
H   37.327   4.953   45.648
H   40.834   -1.765   45.125
H   40.412   -1.733   46.780
H   41.173   -3.067   46.161
H   46.284   -2.899   46.533
H   45.922   -2.504   44.808
H   45.871   -4.281   45.405
H   48.595   0.674   45.119
H   49.104   2.973   46.815
H   49.484   1.147   47.895
H   49.738   -0.202   46.827
H   48.304   -0.068   47.845
H   48.884   4.083   44.363
H   48.579   2.480   43.790
H   50.817   2.046   43.743
H   51.174   2.612   45.438
H   51.299   3.683   44.231
H   46.855   8.204   47.684
H   46.313   8.846   46.178
H   47.589   7.570   46.221
H   41.318   7.371   45.564
H   38.706   9.640   48.178
H   38.391   8.001   48.786
H   37.647   8.514   47.363
H   37.252   6.947   41.042
H   36.916   5.209   41.147
H   39.867   5.392   41.142
H   37.746   5.638   37.839
H   38.526   7.196   37.861
H   37.215   6.767   39.044
H   41.376   5.435   39.296
H   40.787   6.268   37.874
H   40.846   4.320   36.729
H   39.513   3.692   37.744
H   40.866   2.096   38.461
H   41.872   3.324   39.194
H   42.235   2.727   36.298
H   43.197   0.743   36.454
H   42.055   0.361   37.704
H   43.498   0.853   38.239
H   44.650   2.635   37.865
H   43.747   3.806   38.632
H   44.999   4.979   36.903
H   43.410   4.905   36.172
H   45.176   2.523   35.436
H   45.979   3.966   35.113
H   43.119   4.120   34.238
H   43.611   1.476   34.013
H   43.921   2.138   32.466
H   42.414   2.586   33.374
H   45.638   3.816   32.512
H   45.260   5.338   33.262
H   43.708   6.105   32.138
H   42.719   4.765   32.022
H   44.011   3.601   30.476
H   45.179   4.916   30.251
H   42.829   6.280   29.731
H   44.651   6.884   28.426
H   43.560   6.176   27.246
H   44.961   5.210   27.877
H   42.362   3.528   29.076
H   41.660   4.525   27.895
H   41.015   4.735   29.474

