%nproc=24
%mem=50gb
#p ZINDO=(nstates=5)

step_1001_chromophore_24 ZINDO

0 1
Mg   -1.129   43.961   25.179
C   1.285   43.517   27.573
C   -3.595   43.363   27.600
C   -3.389   43.749   22.774
C   1.447   44.245   22.806
N   -1.133   43.401   27.323
C   -0.028   43.532   28.095
C   -0.390   43.501   29.592
C   -1.937   43.263   29.610
C   -2.265   43.341   28.062
C   -2.309   41.975   30.317
C   -0.058   44.792   30.336
C   0.120   44.663   31.858
C   0.170   43.265   32.495
O   1.131   42.515   32.374
O   -0.928   43.064   33.266
N   -3.200   43.623   25.198
C   -4.020   43.373   26.299
C   -5.449   43.246   25.840
C   -5.367   43.269   24.410
C   -3.975   43.522   24.029
C   -6.709   43.189   26.760
C   -6.523   43.177   23.417
O   -6.384   43.492   22.283
C   -7.952   42.744   23.849
N   -0.973   44.157   23.129
C   -2.068   43.922   22.353
C   -1.676   43.905   20.801
C   -0.217   44.487   20.897
C   0.152   44.350   22.337
C   -1.941   42.595   19.988
C   0.074   45.923   20.265
C   -0.019   47.169   21.103
N   0.940   43.845   25.109
C   1.873   44.019   24.089
C   3.222   43.837   24.624
C   3.016   43.658   26.003
C   1.684   43.694   26.179
C   4.420   43.747   23.810
C   3.699   43.296   27.280
O   4.838   43.009   27.537
C   2.565   43.273   28.358
C   2.584   41.947   29.095
O   1.971   40.934   28.773
O   3.449   41.958   30.143
C   3.674   40.681   30.787
C   -0.928   41.828   34.085
C   -2.313   41.687   34.697
C   -2.959   40.587   35.129
C   -2.330   39.181   35.277
C   -4.341   40.822   35.619
C   -4.484   41.765   36.895
C   -4.908   43.211   36.655
C   -6.213   43.731   37.408
C   -5.840   44.957   38.283
C   -7.417   43.775   36.436
C   -8.159   42.435   36.401
C   -9.606   42.515   36.915
C   -10.669   41.584   36.176
C   -11.251   42.179   34.797
C   -11.714   41.053   37.212
C   -11.479   39.631   37.782
C   -12.811   38.918   38.165
C   -12.906   38.574   39.698
C   -12.563   37.142   39.888
C   -14.209   39.032   40.253
H   -4.400   43.443   28.333
H   -4.094   43.560   21.962
H   2.281   44.285   22.102
H   0.124   42.615   29.966
H   -2.418   44.153   30.017
H   -3.118   41.498   29.764
H   -2.750   42.207   31.286
H   -1.494   41.264   30.458
H   -0.784   45.598   30.224
H   0.893   45.155   29.947
H   -0.403   45.523   32.275
H   1.042   45.165   32.148
H   -6.487   43.692   27.702
H   -6.987   42.172   27.035
H   -7.567   43.686   26.308
H   -8.687   43.504   24.114
H   -7.857   42.020   24.659
H   -8.401   42.228   23.000
H   -2.336   44.634   20.331
H   0.451   43.775   20.413
H   -2.480   41.958   20.690
H   -0.937   42.269   19.714
H   -2.453   42.860   19.063
H   -0.620   46.036   19.433
H   1.086   45.783   19.885
H   0.848   47.806   20.928
H   -0.038   46.919   22.164
H   -0.935   47.734   20.931
H   4.517   42.676   23.630
H   5.379   43.969   24.277
H   4.370   44.060   22.767
H   2.632   44.022   29.148
H   3.928   39.883   30.090
H   2.825   40.450   31.431
H   4.547   40.854   31.417
H   -0.336   41.765   34.997
H   -0.675   41.034   33.382
H   -2.794   42.664   34.744
H   -1.489   38.952   34.622
H   -3.096   38.450   35.018
H   -1.957   39.155   36.300
H   -4.827   39.847   35.608
H   -4.852   41.358   34.819
H   -3.482   41.718   37.321
H   -5.112   41.150   37.538
H   -5.051   43.381   35.588
H   -4.055   43.873   36.798
H   -6.442   42.950   38.133
H   -4.763   45.124   38.311
H   -6.083   44.721   39.319
H   -6.422   45.823   37.966
H   -7.049   44.091   35.460
H   -8.016   44.624   36.766
H   -7.672   41.667   37.002
H   -8.133   42.035   35.388
H   -10.018   43.524   36.875
H   -9.683   42.215   37.959
H   -10.089   40.729   35.831
H   -12.267   41.818   34.637
H   -10.609   41.776   34.014
H   -11.252   43.269   34.805
H   -12.705   41.049   36.758
H   -11.618   41.718   38.070
H   -10.892   39.819   38.680
H   -10.909   39.058   37.050
H   -12.804   37.949   37.666
H   -13.655   39.499   37.793
H   -12.096   39.115   40.187
H   -13.088   36.504   39.177
H   -12.896   36.980   40.913
H   -11.501   36.898   39.892
H   -13.921   39.842   40.922
H   -14.678   38.243   40.840
H   -14.936   39.370   39.515

