%nproc=24
%mem=75GB
#p blyp/Def2SVP td=(nstates=5)

step_1001_chromophore_18 TDDFT with blyp functional

0 1
Mg   34.169   49.092   25.544
C   34.666   47.329   28.608
C   32.292   51.319   27.485
C   33.872   50.999   22.807
C   35.658   46.597   23.818
N   33.496   49.180   27.806
C   33.939   48.481   28.868
C   33.625   49.149   30.216
C   32.598   50.220   29.794
C   32.794   50.252   28.263
C   31.134   49.977   30.282
C   34.875   49.710   30.831
C   34.889   49.738   32.393
C   33.594   49.595   33.187
O   33.176   48.528   33.620
O   33.018   50.809   33.403
N   33.260   50.880   25.234
C   32.537   51.646   26.125
C   32.109   52.871   25.475
C   32.544   52.863   24.084
C   33.261   51.561   23.986
C   31.362   53.934   26.133
C   32.262   53.875   22.940
O   32.803   53.713   21.862
C   31.442   55.079   23.191
N   34.688   48.848   23.662
C   34.361   49.723   22.658
C   34.647   49.081   21.221
C   35.518   47.861   21.618
C   35.275   47.741   23.142
C   33.438   48.846   20.440
C   37.013   47.983   21.156
C   37.973   48.833   22.092
N   34.980   47.282   26.030
C   35.544   46.394   25.236
C   35.927   45.150   26.017
C   35.615   45.525   27.348
C   35.122   46.869   27.310
C   36.482   43.941   25.554
C   35.705   45.009   28.695
O   35.979   43.887   29.139
C   35.143   46.287   29.567
C   33.998   45.766   30.347
O   32.888   45.443   29.949
O   34.424   45.438   31.584
C   33.508   44.546   32.371
C   32.008   50.934   34.445
C   31.893   52.450   34.592
C   31.052   53.247   35.273
C   30.023   52.722   36.199
C   31.076   54.777   35.128
C   31.730   55.609   36.308
C   32.441   56.831   35.785
C   32.185   58.204   36.560
C   33.424   59.098   36.477
C   30.862   58.897   36.066
C   29.725   58.726   37.044
C   29.882   59.909   38.102
C   29.056   61.110   37.611
C   29.730   62.493   37.898
C   27.582   61.040   38.016
C   26.682   61.542   36.914
C   26.474   63.050   37.019
C   24.996   63.379   37.030
C   24.663   64.425   35.864
C   24.595   64.005   38.395
H   31.649   51.960   28.093
H   33.797   51.583   21.887
H   36.166   45.833   23.227
H   33.322   48.351   30.894
H   32.887   51.235   30.067
H   30.821   48.933   30.315
H   30.465   50.524   29.617
H   31.099   50.300   31.322
H   34.948   50.757   30.535
H   35.776   49.198   30.494
H   35.207   50.742   32.674
H   35.485   48.925   32.806
H   31.141   53.713   27.177
H   30.395   53.897   25.632
H   31.986   54.827   26.083
H   31.870   55.780   23.908
H   30.454   54.751   23.514
H   31.237   55.595   22.254
H   35.234   49.809   20.661
H   35.151   46.934   21.176
H   32.628   48.801   21.168
H   33.298   47.849   20.020
H   33.273   49.499   19.583
H   37.074   48.357   20.134
H   37.468   46.993   21.203
H   38.533   49.489   21.426
H   38.612   48.178   22.685
H   37.429   49.463   22.796
H   37.082   44.158   24.670
H   35.888   43.056   25.325
H   37.219   43.703   26.321
H   35.929   46.677   30.212
H   33.195   43.692   31.771
H   32.673   45.193   32.639
H   34.027   44.207   33.268
H   32.394   50.567   35.396
H   31.024   50.489   34.297
H   32.551   52.824   33.808
H   29.214   53.400   36.469
H   30.564   52.477   37.113
H   29.509   51.780   36.007
H   30.087   55.183   34.917
H   31.669   54.824   34.214
H   32.328   54.977   36.964
H   30.891   55.964   36.906
H   32.184   56.980   34.736
H   33.501   56.592   35.694
H   32.088   57.932   37.611
H   34.206   58.714   35.821
H   34.059   59.244   37.350
H   33.166   60.092   36.112
H   30.664   58.521   35.063
H   31.056   59.959   35.916
H   29.791   57.801   37.616
H   28.766   58.797   36.530
H   30.940   60.115   38.266
H   29.484   59.613   39.072
H   29.067   61.024   36.524
H   29.696   63.083   36.982
H   30.717   62.219   38.272
H   29.219   63.128   38.622
H   27.405   61.509   38.984
H   27.389   59.984   38.205
H   25.768   60.950   36.965
H   27.037   61.406   35.892
H   26.910   63.540   36.148
H   27.033   63.512   37.832
H   24.351   62.510   36.899
H   25.483   65.126   35.711
H   23.795   65.040   36.104
H   24.575   64.051   34.844
H   23.990   63.293   38.954
H   23.885   64.814   38.221
H   25.403   64.415   39.001

