%nproc=24
%mem=50gb
#p ZINDO=(nstates=5)

step_1351_chromophore_3 ZINDO

0 1
Mg   2.282   8.393   26.709
C   2.386   10.607   29.354
C   2.707   5.881   29.005
C   2.361   6.320   24.170
C   2.344   11.056   24.494
N   2.398   8.232   28.977
C   2.448   9.281   29.824
C   2.489   8.801   31.260
C   2.867   7.305   31.205
C   2.642   7.099   29.666
C   4.258   6.900   31.758
C   1.076   9.053   31.898
C   1.028   9.334   33.424
C   2.014   8.469   34.259
O   3.171   8.700   34.506
O   1.434   7.305   34.602
N   2.511   6.382   26.566
C   2.544   5.530   27.619
C   2.784   4.229   27.172
C   2.624   4.261   25.749
C   2.547   5.743   25.385
C   2.962   3.008   28.031
C   2.658   3.219   24.636
O   2.779   3.384   23.404
C   2.470   1.777   25.153
N   2.348   8.676   24.670
C   2.439   7.639   23.790
C   2.420   8.080   22.323
C   2.194   9.601   22.405
C   2.202   9.836   23.905
C   3.679   7.589   21.577
C   0.786   10.017   21.852
C   -0.447   9.610   22.637
N   2.407   10.395   26.904
C   2.495   11.339   25.923
C   2.573   12.686   26.545
C   2.540   12.428   27.911
C   2.378   11.035   28.036
C   2.393   13.950   25.811
C   2.548   13.036   29.269
O   2.639   14.223   29.582
C   2.402   11.891   30.182
C   3.456   11.978   31.252
O   4.665   11.817   31.118
O   2.951   12.342   32.438
C   3.673   12.334   33.715
C   2.180   6.386   35.386
C   1.332   5.539   36.327
C   1.459   4.998   37.547
C   2.738   5.279   38.289
C   0.451   4.034   38.139
C   0.699   2.499   37.740
C   1.051   1.747   39.021
C   1.513   0.340   38.711
C   2.869   0.376   38.068
C   1.583   -0.371   40.101
C   1.226   -1.842   39.937
C   1.966   -2.770   40.909
C   3.031   -3.616   40.214
C   2.549   -5.080   40.091
C   4.375   -3.489   41.006
C   5.186   -2.221   40.542
C   6.052   -1.592   41.661
C   7.575   -1.687   41.346
C   8.425   -1.840   42.644
C   8.036   -0.550   40.388
H   3.109   5.234   29.787
H   2.261   5.668   23.299
H   2.288   11.909   23.815
H   3.257   9.223   31.909
H   2.066   6.661   31.567
H   4.135   5.967   32.308
H   4.479   7.533   32.618
H   5.095   6.841   31.061
H   0.484   8.147   31.762
H   0.522   9.786   31.311
H   0.023   9.304   33.844
H   1.365   10.369   33.455
H   2.001   2.493   28.039
H   3.224   3.255   29.060
H   3.738   2.346   27.647
H   3.361   1.521   25.727
H   2.426   1.069   24.326
H   1.472   1.738   25.590
H   1.661   7.494   21.804
H   3.108   10.069   22.038
H   3.433   7.338   20.545
H   4.175   6.702   21.971
H   4.449   8.360   21.546
H   0.617   9.560   20.877
H   0.730   11.093   21.689
H   -1.102   10.480   22.586
H   -0.169   9.382   23.666
H   -0.938   8.706   22.276
H   3.329   14.424   25.514
H   1.836   14.673   26.407
H   1.798   13.707   24.930
H   1.430   12.032   30.654
H   4.466   11.587   33.742
H   3.037   12.180   34.587
H   4.154   13.295   33.898
H   3.027   6.860   35.882
H   2.554   5.733   34.596
H   0.333   5.431   35.905
H   3.457   5.861   37.713
H   3.108   4.269   38.465
H   2.451   5.840   39.178
H   -0.472   4.229   37.593
H   0.268   4.209   39.199
H   1.595   2.491   37.118
H   -0.154   2.011   37.269
H   0.207   1.745   39.711
H   1.913   2.316   39.369
H   0.828   -0.262   38.114
H   3.298   1.374   37.975
H   2.818   -0.017   37.053
H   3.610   -0.240   38.577
H   0.869   0.056   40.805
H   2.564   -0.083   40.479
H   1.346   -2.316   38.963
H   0.232   -1.977   40.364
H   1.256   -3.453   41.376
H   2.479   -2.145   41.640
H   3.162   -3.187   39.221
H   3.085   -5.607   40.880
H   2.941   -5.413   39.130
H   1.503   -5.312   40.291
H   5.002   -4.295   40.627
H   4.351   -3.527   42.095
H   4.546   -1.384   40.267
H   5.877   -2.479   39.740
H   5.731   -1.985   42.626
H   5.790   -0.535   41.674
H   7.687   -2.632   40.813
H   7.695   -1.904   43.451
H   8.935   -0.921   42.930
H   9.165   -2.640   42.613
H   7.539   0.406   40.554
H   7.792   -0.920   39.393
H   9.093   -0.370   40.584

