%nproc=24
%mem=75GB
#p blyp/Def2SVP td=(nstates=5)

step_1501_chromophore_16 TDDFT with blyp functional

0 1
Mg   40.240   41.604   27.102
C   39.561   44.057   29.672
C   41.245   39.577   29.393
C   41.075   39.659   24.583
C   39.329   44.216   24.825
N   40.593   41.977   29.289
C   40.072   42.855   30.120
C   40.008   42.377   31.551
C   40.733   40.965   31.404
C   40.852   40.799   29.869
C   42.008   40.707   32.222
C   38.665   42.402   32.266
C   38.620   41.781   33.651
C   38.275   42.668   34.861
O   39.170   43.310   35.434
O   37.129   42.221   35.397
N   41.043   39.780   26.976
C   41.422   39.096   28.089
C   41.969   37.838   27.641
C   42.041   37.918   26.225
C   41.359   39.152   25.858
C   42.501   36.757   28.532
C   42.693   36.943   25.255
O   42.792   37.244   24.042
C   43.365   35.639   25.745
N   40.166   41.894   25.047
C   40.463   40.855   24.228
C   40.203   41.236   22.797
C   39.312   42.509   22.862
C   39.665   42.937   24.294
C   41.541   41.280   21.982
C   37.823   42.250   22.580
C   37.274   41.140   23.497
N   39.600   43.643   27.154
C   39.340   44.591   26.166
C   39.065   45.914   26.683
C   39.076   45.729   28.062
C   39.411   44.381   28.299
C   38.736   47.175   25.868
C   38.837   46.360   29.322
O   38.422   47.490   29.630
C   39.073   45.284   30.390
C   39.953   45.685   31.527
O   41.180   45.559   31.547
O   39.192   46.167   32.533
C   39.938   46.451   33.801
C   36.828   42.745   36.755
C   37.706   42.032   37.784
C   37.882   42.459   39.043
C   37.119   43.550   39.813
C   38.981   41.847   39.838
C   39.159   40.329   40.021
C   37.884   39.638   40.443
C   38.057   38.388   41.368
C   37.997   37.048   40.656
C   37.088   38.414   42.572
C   37.716   38.999   43.880
C   38.113   37.975   44.904
C   37.969   38.554   46.348
C   39.384   38.400   47.024
C   36.904   37.700   47.113
C   35.515   38.400   47.097
C   34.712   38.163   45.813
C   33.935   36.804   45.818
C   32.463   36.958   46.232
C   34.082   35.999   44.522
H   41.509   38.830   30.145
H   41.214   39.037   23.696
H   39.167   45.023   24.107
H   40.659   43.086   32.063
H   39.939   40.276   31.694
H   42.174   41.603   32.819
H   42.783   40.431   31.508
H   41.925   39.903   32.954
H   37.976   41.940   31.559
H   38.352   43.432   32.434
H   39.552   41.290   33.930
H   37.928   40.944   33.553
H   43.581   36.654   28.419
H   42.111   35.745   28.422
H   42.357   37.069   29.566
H   43.711   35.138   24.841
H   42.644   34.930   26.152
H   44.100   35.958   26.484
H   39.593   40.535   22.227
H   39.666   43.284   22.182
H   41.714   42.302   21.645
H   41.386   40.588   21.154
H   42.361   40.925   22.606
H   37.722   42.077   21.508
H   37.304   43.205   22.657
H   36.499   41.511   24.168
H   38.010   40.444   23.899
H   36.866   40.491   22.722
H   38.572   47.978   26.587
H   37.839   46.862   25.334
H   39.567   47.399   25.199
H   38.129   44.997   30.852
H   40.745   45.744   33.993
H   39.256   46.314   34.640
H   40.421   47.422   33.910
H   35.786   42.509   36.971
H   36.869   43.824   36.906
H   38.254   41.147   37.462
H   36.412   44.020   39.129
H   37.821   44.298   40.182
H   36.520   43.191   40.650
H   38.932   42.183   40.874
H   39.961   42.061   39.413
H   40.006   40.053   40.650
H   39.471   39.914   39.062
H   37.289   39.297   39.596
H   37.228   40.354   40.938
H   39.058   38.352   41.799
H   38.750   37.113   39.870
H   37.059   36.851   40.137
H   38.240   36.194   41.288
H   36.809   37.374   42.741
H   36.182   39.007   42.446
H   36.931   39.624   44.305
H   38.521   39.623   43.490
H   39.109   37.671   44.581
H   37.546   37.064   44.710
H   37.813   39.632   46.311
H   39.684   39.230   47.664
H   40.127   38.486   46.232
H   39.577   37.455   47.531
H   37.269   37.394   48.093
H   36.698   36.707   46.714
H   35.681   39.468   47.241
H   34.947   38.149   47.993
H   35.408   38.145   44.975
H   34.082   39.035   45.639
H   34.163   36.137   46.649
H   32.292   37.815   46.884
H   32.175   36.146   46.900
H   31.922   37.060   45.291
H   34.843   35.220   44.479
H   34.126   36.606   43.617
H   33.192   35.374   44.460

