%nproc=24
%mem=75GB
#p PBE1PBE/Def2SVP td=(nstates=5)

step_1101_chromophore_15 TDDFT with PBE1PBE functional

0 1
Mg   47.146   35.191   28.517
C   45.401   33.374   31.196
C   47.462   37.823   30.680
C   48.178   36.923   25.923
C   46.828   32.317   26.518
N   46.571   35.475   30.692
C   45.978   34.640   31.551
C   46.041   35.208   32.977
C   46.177   36.736   32.694
C   46.790   36.713   31.236
C   44.941   37.555   32.960
C   47.253   34.623   33.769
C   47.068   34.347   35.350
C   46.238   35.356   36.190
O   45.019   35.500   36.150
O   46.964   36.143   36.979
N   47.839   37.068   28.286
C   47.975   38.017   29.349
C   48.573   39.223   28.814
C   48.824   39.035   27.448
C   48.331   37.578   27.135
C   48.484   40.508   29.580
C   49.354   40.022   26.472
O   49.382   39.749   25.271
C   49.839   41.374   26.856
N   47.343   34.717   26.461
C   47.858   35.616   25.654
C   48.149   34.992   24.280
C   47.733   33.492   24.396
C   47.401   33.419   25.947
C   47.487   35.621   23.020
C   48.850   32.462   24.004
C   48.270   31.218   23.207
N   46.322   33.215   28.778
C   46.254   32.166   27.837
C   45.490   31.065   28.417
C   45.089   31.537   29.641
C   45.644   32.792   29.878
C   45.077   29.780   27.832
C   44.372   31.146   30.837
O   43.817   30.069   31.011
C   44.407   32.407   31.848
C   44.932   31.848   33.075
O   46.116   31.710   33.461
O   43.821   31.537   33.798
C   44.119   30.815   35.082
C   46.294   37.281   37.646
C   47.428   38.163   38.230
C   47.460   38.966   39.300
C   46.126   39.352   40.079
C   48.795   39.569   39.638
C   49.223   40.763   38.746
C   49.135   42.089   39.560
C   49.186   43.431   38.685
C   50.479   44.285   39.031
C   47.889   44.169   38.820
C   47.712   45.411   37.971
C   47.810   46.747   38.768
C   46.418   47.495   38.625
C   46.622   49.037   38.462
C   45.476   47.211   39.852
C   44.299   46.226   39.391
C   43.008   46.581   40.239
C   41.856   46.906   39.340
C   40.629   47.419   40.205
C   41.472   45.706   38.463
H   47.421   38.751   31.255
H   48.557   37.505   25.080
H   46.615   31.490   25.837
H   45.107   34.819   33.385
H   46.942   37.090   33.385
H   44.753   38.145   32.063
H   44.966   38.188   33.847
H   44.063   36.913   33.021
H   48.069   35.343   33.712
H   47.660   33.764   33.236
H   47.979   34.143   35.912
H   46.576   33.395   35.549
H   47.844   41.223   29.063
H   49.495   40.914   29.530
H   48.215   40.606   30.631
H   49.053   42.124   26.767
H   50.516   41.479   26.008
H   50.466   41.408   27.748
H   49.221   35.018   24.089
H   46.737   33.276   24.008
H   46.760   34.934   22.586
H   48.282   35.885   22.322
H   46.882   36.492   23.272
H   49.416   32.097   24.861
H   49.541   32.948   23.315
H   47.213   31.183   23.473
H   48.769   30.305   23.531
H   48.268   31.432   22.138
H   45.967   29.170   27.675
H   44.570   29.941   26.881
H   44.476   29.191   28.525
H   43.440   32.891   31.980
H   44.873   30.029   35.075
H   43.223   30.246   35.331
H   44.483   31.488   35.859
H   45.684   36.984   38.499
H   45.651   37.906   37.026
H   48.408   37.871   37.851
H   45.904   40.419   40.055
H   46.203   39.042   41.121
H   45.300   38.815   39.613
H   49.558   38.792   39.605
H   48.814   39.781   40.708
H   48.381   41.006   38.098
H   50.108   40.493   38.171
H   49.880   41.996   40.351
H   48.149   42.118   40.026
H   49.277   43.224   37.619
H   51.156   44.419   38.187
H   50.940   43.764   39.870
H   50.166   45.252   39.425
H   47.813   44.504   39.855
H   47.080   43.524   38.477
H   46.768   45.300   37.436
H   48.545   45.483   37.271
H   48.649   47.336   38.397
H   47.898   46.574   39.841
H   45.965   47.262   37.661
H   46.296   49.240   37.442
H   47.614   49.472   38.587
H   45.962   49.625   39.100
H   45.062   48.120   40.289
H   45.952   46.575   40.599
H   44.575   45.188   39.579
H   44.099   46.366   38.329
H   43.149   47.412   40.930
H   42.717   45.751   40.882
H   42.029   47.727   38.645
H   40.493   48.485   40.023
H   40.654   47.172   41.267
H   39.732   46.984   39.765
H   41.882   44.790   38.889
H   41.944   45.836   37.489
H   40.389   45.765   38.354

