%nproc=24
%mem=75GB
#p cam-b3lyp/Def2SVP td=(nstates=5)

step_751_chromophore_3 TDDFT with cam-b3lyp functional

0 1
Mg   1.525   8.190   26.753
C   2.017   10.036   29.613
C   2.243   5.294   28.676
C   1.769   6.417   23.845
C   1.679   11.054   24.772
N   1.877   7.707   28.893
C   1.922   8.655   29.877
C   1.983   8.054   31.259
C   2.251   6.592   30.918
C   2.112   6.495   29.393
C   3.552   6.030   31.384
C   0.657   8.206   32.078
C   0.889   8.548   33.535
C   2.028   7.776   34.301
O   3.183   8.117   34.489
O   1.497   6.503   34.714
N   1.775   6.155   26.320
C   2.059   5.147   27.256
C   2.286   3.960   26.494
C   2.058   4.166   25.113
C   1.723   5.622   25.036
C   2.744   2.666   27.205
C   2.174   3.152   23.969
O   1.966   3.561   22.836
C   2.394   1.671   24.267
N   1.735   8.666   24.548
C   1.800   7.797   23.604
C   1.880   8.344   22.180
C   1.568   9.873   22.412
C   1.716   9.925   24.016
C   3.295   8.170   21.564
C   0.092   10.268   22.025
C   -0.142   11.204   20.784
N   1.680   10.236   27.042
C   1.795   11.230   26.198
C   2.015   12.469   26.982
C   2.147   12.088   28.279
C   1.949   10.694   28.300
C   2.008   13.836   26.374
C   2.427   12.510   29.685
O   2.800   13.588   30.143
C   2.257   11.219   30.609
C   3.475   10.919   31.379
O   4.372   10.106   31.054
O   3.553   11.762   32.441
C   4.632   11.578   33.405
C   2.327   5.734   35.589
C   1.573   4.746   36.535
C   1.669   4.482   37.841
C   2.744   4.960   38.872
C   0.599   3.636   38.429
C   0.834   2.186   38.334
C   0.778   1.495   39.713
C   1.949   0.433   39.860
C   3.217   1.050   40.456
C   1.393   -0.893   40.501
C   2.306   -2.125   40.132
C   3.246   -2.536   41.317
C   4.766   -2.485   40.914
C   5.371   -3.972   40.686
C   5.704   -1.757   41.900
C   6.675   -0.879   41.126
C   7.623   -0.130   42.044
C   9.095   -0.158   41.653
C   9.967   -0.130   42.930
C   9.391   1.103   40.888
H   2.415   4.373   29.237
H   1.930   5.798   22.960
H   1.554   12.004   24.248
H   2.844   8.429   31.813
H   1.465   5.916   31.255
H   4.172   6.749   31.918
H   4.163   5.614   30.582
H   3.398   5.165   32.029
H   0.058   7.301   31.985
H   0.073   8.914   31.490
H   -0.070   8.564   34.053
H   1.138   9.609   33.530
H   3.809   2.611   26.978
H   2.149   1.830   26.839
H   2.582   2.597   28.280
H   1.505   1.272   24.756
H   3.305   1.641   24.866
H   2.590   1.119   23.348
H   1.113   7.940   21.520
H   2.296   10.570   21.997
H   3.963   8.937   21.956
H   3.439   8.328   20.495
H   3.693   7.184   21.802
H   -0.456   10.619   22.899
H   -0.329   9.285   21.813
H   0.759   11.228   20.171
H   -0.455   12.155   21.213
H   -0.877   10.831   20.071
H   1.535   13.820   25.392
H   3.025   14.173   26.173
H   1.565   14.624   26.983
H   1.482   11.316   31.368
H   4.658   10.534   33.719
H   4.469   12.273   34.228
H   5.559   11.802   32.878
H   2.677   6.420   36.360
H   3.258   5.340   35.182
H   0.790   4.248   35.963
H   2.386   5.849   39.391
H   3.601   5.335   38.312
H   2.923   4.117   39.539
H   -0.311   3.839   37.864
H   0.441   4.002   39.443
H   1.779   2.078   37.802
H   0.098   1.809   37.625
H   -0.242   1.137   39.855
H   0.864   2.252   40.492
H   2.251   0.036   38.891
H   3.159   2.139   40.443
H   4.143   0.641   40.052
H   3.149   0.786   41.511
H   0.352   -0.993   40.194
H   1.413   -0.715   41.576
H   2.995   -1.884   39.323
H   1.659   -2.947   39.827
H   3.008   -3.509   41.747
H   3.101   -1.720   42.024
H   4.940   -1.900   40.011
H   5.131   -4.388   39.707
H   5.201   -4.694   41.485
H   6.453   -3.963   40.819
H   6.152   -2.539   42.513
H   5.083   -1.057   42.459
H   6.176   -0.216   40.420
H   7.262   -1.573   40.526
H   7.416   -0.419   43.074
H   7.301   0.910   42.105
H   9.481   -0.960   41.024
H   10.220   0.914   43.112
H   10.861   -0.716   42.716
H   9.430   -0.493   43.806
H   10.277   0.889   40.290
H   9.405   2.031   41.460
H   8.667   1.344   40.110

