%nproc=24
%mem=75GB
#p PBE1PBE/Def2SVP td=(nstates=5)

step_1151_chromophore_25 TDDFT with PBE1PBE functional

0 1
Mg   -2.326   34.406   26.606
C   -3.716   32.781   29.257
C   -0.795   36.669   28.751
C   -2.075   36.597   24.051
C   -4.479   32.433   24.458
N   -2.296   34.753   28.779
C   -2.820   33.842   29.639
C   -2.347   34.159   31.107
C   -1.445   35.457   30.909
C   -1.428   35.617   29.375
C   -1.793   36.738   31.692
C   -1.609   32.935   31.861
C   -2.048   32.507   33.315
C   -1.068   32.698   34.395
O   -0.062   31.986   34.560
O   -1.394   33.784   35.244
N   -1.369   36.258   26.412
C   -0.792   36.996   27.376
C   -0.216   38.283   26.698
C   -0.555   38.300   25.328
C   -1.400   37.044   25.236
C   0.531   39.199   27.493
C   -0.145   39.240   24.160
O   -0.493   39.088   22.982
C   0.675   40.468   24.469
N   -3.270   34.608   24.586
C   -2.876   35.584   23.729
C   -3.490   35.403   22.346
C   -4.050   33.955   22.416
C   -3.902   33.578   23.884
C   -4.548   36.488   22.058
C   -3.484   32.926   21.461
C   -1.920   32.862   21.461
N   -3.688   32.774   26.699
C   -4.474   32.093   25.816
C   -5.136   30.931   26.468
C   -4.837   31.210   27.834
C   -4.025   32.315   27.906
C   -6.041   30.067   25.818
C   -5.178   30.799   29.196
O   -5.898   29.920   29.686
C   -4.354   31.718   30.208
C   -5.344   32.414   31.031
O   -6.276   33.160   30.635
O   -5.198   31.780   32.194
C   -6.200   32.013   33.217
C   -0.364   34.189   36.205
C   -1.098   34.721   37.447
C   -1.456   33.961   38.539
C   -1.204   32.493   38.659
C   -1.908   34.646   39.864
C   -0.839   35.492   40.630
C   -1.567   36.590   41.433
C   -1.462   36.370   43.000
C   -2.832   36.138   43.618
C   -0.649   37.531   43.562
C   -0.200   37.162   45.041
C   1.408   36.989   45.173
C   1.813   35.535   45.576
C   1.342   35.165   47.037
C   3.367   35.401   45.416
C   3.658   34.242   44.473
C   4.310   34.793   43.154
C   5.526   34.064   42.553
C   6.695   34.920   42.057
C   5.027   33.059   41.506
H   -0.185   37.314   29.387
H   -2.151   37.241   23.172
H   -4.833   31.650   23.783
H   -3.248   34.431   31.657
H   -0.452   35.170   31.255
H   -2.632   36.571   32.367
H   -2.091   37.538   31.015
H   -0.976   36.967   32.377
H   -0.562   33.142   32.086
H   -1.562   32.098   31.164
H   -2.338   31.458   33.276
H   -3.023   32.878   33.631
H   1.557   38.978   27.200
H   0.476   39.099   28.577
H   0.303   40.222   27.193
H   0.120   41.237   25.007
H   0.824   40.865   23.465
H   1.662   40.231   24.866
H   -2.732   35.367   21.564
H   -5.121   33.990   22.218
H   -4.468   36.785   21.012
H   -4.449   37.374   22.685
H   -5.576   36.162   22.216
H   -3.760   33.292   20.472
H   -3.864   31.935   21.711
H   -1.547   33.075   20.459
H   -1.581   31.875   21.776
H   -1.483   33.655   22.068
H   -6.971   30.562   25.536
H   -6.308   29.310   26.556
H   -5.534   29.526   25.020
H   -3.614   31.204   30.823
H   -6.231   31.073   33.767
H   -7.176   32.229   32.782
H   -5.961   32.821   33.910
H   0.024   35.097   35.743
H   0.379   33.412   36.383
H   -1.111   35.805   37.567
H   -0.207   32.387   39.087
H   -1.123   32.005   37.688
H   -1.995   32.055   39.269
H   -2.155   33.940   40.657
H   -2.795   35.258   39.701
H   -0.145   35.939   39.918
H   -0.326   34.872   41.365
H   -2.597   36.711   41.098
H   -1.123   37.529   41.101
H   -0.798   35.569   43.327
H   -3.070   35.180   44.080
H   -3.609   36.400   42.899
H   -2.953   36.913   44.376
H   -1.342   38.368   43.650
H   0.132   37.795   42.849
H   -0.705   36.240   45.330
H   -0.418   38.047   45.639
H   1.733   37.811   45.811
H   1.799   37.169   44.171
H   1.290   34.803   44.961
H   0.607   34.360   47.072
H   0.929   36.073   47.477
H   2.175   34.912   47.692
H   3.754   35.253   46.424
H   3.837   36.349   45.153
H   2.794   33.684   44.113
H   4.401   33.624   44.977
H   4.716   35.803   43.216
H   3.517   34.858   42.408
H   5.956   33.429   43.328
H   7.543   34.270   41.845
H   6.873   35.686   42.812
H   6.392   35.378   41.115
H   3.999   32.720   41.384
H   5.633   32.154   41.453
H   5.193   33.440   40.499

