%nproc=24
%mem=75GB
#p blyp/Def2SVP td=(nstates=5)

step_251_chromophore_2 TDDFT with blyp functional

0 1
Mg   3.635   0.418   44.385
C   6.382   2.416   44.157
C   1.856   2.916   42.765
C   1.034   -1.702   44.271
C   5.659   -2.277   45.398
N   4.153   2.341   43.324
C   5.357   2.937   43.436
C   5.441   4.201   42.661
C   3.826   4.531   42.537
C   3.195   3.170   42.899
C   3.382   5.724   43.434
C   6.085   3.933   41.310
C   5.459   2.815   40.354
C   5.369   3.048   38.851
O   5.497   4.162   38.334
O   5.189   1.880   38.226
N   1.722   0.571   43.631
C   1.117   1.744   43.113
C   -0.275   1.471   42.979
C   -0.555   0.160   43.344
C   0.720   -0.405   43.817
C   -1.172   2.581   42.470
C   -1.870   -0.571   43.215
O   -2.818   0.097   42.732
C   -2.073   -1.970   43.390
N   3.454   -1.753   44.578
C   2.235   -2.364   44.546
C   2.359   -3.879   44.836
C   3.875   -4.032   45.197
C   4.391   -2.620   44.977
C   1.412   -4.368   45.911
C   4.590   -5.149   44.265
C   5.560   -6.065   45.020
N   5.669   0.045   44.750
C   6.320   -0.993   45.336
C   7.632   -0.520   45.685
C   7.751   0.858   45.292
C   6.527   1.131   44.704
C   8.770   -1.380   46.117
C   8.576   2.015   45.155
O   9.738   2.100   45.572
C   7.718   3.056   44.460
C   7.619   4.248   45.337
O   8.637   4.807   45.695
O   6.347   4.661   45.592
C   6.237   5.851   46.438
C   5.186   2.026   36.761
C   4.216   1.038   36.090
C   3.573   1.078   34.925
C   3.711   2.191   33.828
C   2.659   -0.105   34.548
C   1.110   0.055   34.636
C   0.474   -0.409   33.275
C   -1.038   -0.021   33.149
C   -1.897   -1.184   32.666
C   -1.167   1.350   32.346
C   -2.612   1.706   31.964
C   -2.763   3.291   31.933
C   -2.057   4.060   30.823
C   -1.798   5.504   31.218
C   -2.998   3.982   29.562
C   -2.333   3.366   28.301
C   -2.559   4.252   27.067
C   -2.816   3.438   25.806
C   -2.444   4.268   24.471
C   -4.263   2.992   25.833
H   1.245   3.786   42.516
H   0.136   -2.297   44.449
H   6.312   -3.008   45.880
H   6.001   5.032   43.090
H   3.586   4.931   41.551
H   2.935   6.505   42.820
H   4.287   6.133   43.884
H   2.702   5.457   44.244
H   7.147   3.767   41.492
H   6.125   4.932   40.876
H   4.434   2.520   40.579
H   6.170   1.999   40.480
H   -1.109   2.527   41.383
H   -0.761   3.539   42.786
H   -2.215   2.545   42.786
H   -2.885   -2.343   42.765
H   -2.150   -2.273   44.435
H   -1.200   -2.433   42.932
H   2.142   -4.332   43.868
H   3.975   -4.219   46.266
H   0.705   -3.614   46.256
H   1.777   -4.910   46.783
H   0.737   -5.015   45.350
H   5.159   -4.732   43.434
H   3.864   -5.767   43.737
H   5.096   -7.047   45.108
H   5.655   -5.692   46.040
H   6.527   -6.161   44.526
H   8.711   -1.835   47.105
H   9.651   -0.741   46.046
H   8.911   -2.236   45.457
H   8.250   3.325   43.547
H   6.789   6.656   45.952
H   6.559   5.684   47.466
H   5.191   6.098   46.619
H   6.209   1.869   36.420
H   4.887   3.040   36.494
H   4.066   0.180   36.745
H   2.694   2.578   33.767
H   3.926   1.646   32.909
H   4.444   2.976   34.018
H   2.934   -0.946   35.184
H   3.037   -0.525   33.616
H   0.925   1.127   34.704
H   0.686   -0.555   35.434
H   0.680   -1.461   33.076
H   0.956   0.112   32.449
H   -1.390   0.212   34.154
H   -1.212   -1.949   32.299
H   -2.576   -0.988   31.836
H   -2.627   -1.460   33.427
H   -0.630   1.146   31.419
H   -0.633   2.136   32.880
H   -3.407   1.276   32.574
H   -2.738   1.415   30.921
H   -2.354   3.539   32.912
H   -3.827   3.514   32.009
H   -1.108   3.577   30.589
H   -1.300   5.586   32.184
H   -2.769   5.994   31.283
H   -1.167   5.909   30.427
H   -3.377   4.987   29.377
H   -3.842   3.334   29.801
H   -2.739   2.358   28.215
H   -1.251   3.344   28.433
H   -1.770   4.965   26.829
H   -3.406   4.866   27.376
H   -2.126   2.606   25.949
H   -3.348   4.419   23.881
H   -1.784   3.621   23.893
H   -1.888   5.183   24.676
H   -4.986   3.134   25.030
H   -4.800   3.489   26.641
H   -4.359   1.927   26.043

