%nproc=24
%mem=50gb
#p ZINDO=(nstates=5)

step_251_chromophore_12 ZINDO

0 1
Mg   48.001   15.367   27.570
C   45.752   15.794   30.498
C   50.044   17.472   29.249
C   49.703   15.159   24.904
C   45.196   13.910   25.932
N   47.853   16.515   29.596
C   46.960   16.376   30.645
C   47.418   17.013   31.962
C   48.558   17.918   31.401
C   48.867   17.297   29.984
C   48.227   19.374   31.304
C   47.823   16.044   33.123
C   47.607   16.501   34.527
C   48.680   16.075   35.524
O   49.498   15.188   35.336
O   48.672   16.838   36.701
N   49.722   16.179   27.120
C   50.489   17.002   27.971
C   51.764   17.206   27.346
C   51.697   16.383   26.139
C   50.370   15.891   26.045
C   52.970   17.989   27.985
C   52.835   16.138   25.196
O   52.695   15.471   24.142
C   54.219   16.613   25.450
N   47.525   14.802   25.635
C   48.437   14.779   24.661
C   47.908   14.197   23.311
C   46.650   13.427   23.861
C   46.395   14.115   25.230
C   47.502   15.319   22.302
C   46.935   11.881   24.074
C   47.495   11.045   22.904
N   45.919   14.888   28.086
C   44.960   14.241   27.315
C   43.727   14.139   28.060
C   44.004   14.696   29.315
C   45.324   15.223   29.272
C   42.479   13.441   27.635
C   43.429   14.972   30.625
O   42.353   14.720   31.151
C   44.655   15.631   31.446
C   44.125   16.854   32.024
O   43.697   17.844   31.410
O   43.763   16.581   33.312
C   43.148   17.602   34.098
C   49.842   16.688   37.605
C   50.174   18.008   38.314
C   51.266   18.250   39.137
C   52.481   17.367   39.396
C   51.295   19.622   39.650
C   52.464   20.423   39.151
C   52.118   21.899   39.063
C   53.339   22.870   38.881
C   53.789   23.388   40.290
C   52.944   24.061   37.960
C   52.989   23.735   36.403
C   51.749   24.241   35.657
C   52.095   24.275   34.200
C   52.802   25.577   33.621
C   50.877   23.872   33.347
C   51.208   22.862   32.104
C   50.338   23.100   30.789
C   51.157   23.493   29.536
C   50.662   24.707   28.818
C   51.151   22.277   28.589
H   50.713   18.032   29.906
H   50.255   15.062   23.967
H   44.377   13.441   25.382
H   46.603   17.648   32.310
H   49.483   17.754   31.953
H   48.080   19.596   30.247
H   49.081   19.967   31.631
H   47.344   19.723   31.839
H   48.897   15.882   33.036
H   47.337   15.088   32.930
H   46.661   16.035   34.802
H   47.324   17.552   34.587
H   53.791   17.372   28.349
H   52.632   18.673   28.763
H   53.292   18.603   27.143
H   54.253   17.685   25.254
H   54.848   16.074   24.741
H   54.467   16.311   26.467
H   48.716   13.579   22.918
H   45.740   13.526   23.270
H   48.215   15.264   21.479
H   47.432   16.326   22.712
H   46.526   14.965   21.967
H   45.993   11.388   24.313
H   47.547   11.810   24.973
H   48.434   10.640   23.281
H   47.700   11.782   22.127
H   46.830   10.232   22.613
H   42.782   12.855   26.767
H   41.779   14.226   27.349
H   42.006   12.855   28.423
H   44.983   14.943   32.225
H   43.067   18.541   33.550
H   43.829   17.762   34.934
H   42.215   17.254   34.539
H   50.679   16.419   36.961
H   49.594   15.813   38.205
H   49.430   18.786   38.145
H   52.641   17.353   40.474
H   53.294   17.714   38.758
H   52.148   16.385   39.060
H   51.450   19.404   40.707
H   50.360   20.179   39.581
H   52.694   20.119   38.130
H   53.256   20.294   39.888
H   51.623   22.207   39.984
H   51.424   22.022   38.232
H   54.196   22.352   38.450
H   54.865   23.219   40.339
H   53.365   22.858   41.143
H   53.658   24.469   40.255
H   53.552   24.951   38.120
H   51.942   24.447   38.147
H   53.048   22.657   36.250
H   53.822   24.221   35.895
H   51.521   25.225   36.067
H   50.870   23.618   35.822
H   52.681   23.373   34.024
H   53.739   25.310   33.132
H   53.049   26.290   34.407
H   52.164   26.047   32.872
H   50.343   24.707   32.893
H   50.214   23.250   33.949
H   50.829   21.911   32.479
H   52.280   22.835   31.906
H   49.485   23.742   31.012
H   49.900   22.117   30.614
H   52.211   23.679   29.740
H   51.147   24.894   27.860
H   50.814   25.535   29.510
H   49.600   24.530   28.648
H   51.223   22.678   27.578
H   50.242   21.677   28.629
H   52.045   21.669   28.722

