%nproc=24
%mem=50gb
#p ZINDO=(nstates=5)

step_701_chromophore_3 ZINDO

0 1
Mg   1.669   7.998   27.045
C   1.664   10.332   29.575
C   2.256   5.454   29.280
C   2.203   5.891   24.465
C   1.599   10.649   24.703
N   1.676   7.912   29.179
C   1.653   8.981   30.059
C   1.566   8.500   31.485
C   1.868   6.905   31.351
C   1.927   6.693   29.824
C   3.153   6.435   32.089
C   0.176   8.832   32.199
C   0.294   9.076   33.677
C   1.438   8.396   34.457
O   2.536   8.896   34.798
O   1.103   7.097   34.666
N   2.203   6.003   26.926
C   2.399   5.111   27.955
C   2.956   3.928   27.418
C   2.911   3.990   26.015
C   2.433   5.332   25.738
C   3.423   2.826   28.316
C   3.269   2.943   24.978
O   2.987   3.188   23.800
C   3.790   1.594   25.348
N   1.823   8.280   24.851
C   1.890   7.211   24.071
C   1.882   7.638   22.577
C   1.477   9.090   22.610
C   1.600   9.388   24.139
C   3.225   7.428   21.823
C   0.068   9.398   22.118
C   -0.116   10.582   21.220
N   1.727   10.041   27.067
C   1.738   11.010   26.039
C   1.862   12.304   26.660
C   1.870   12.058   28.059
C   1.667   10.714   28.239
C   1.933   13.684   26.014
C   1.884   12.697   29.352
O   1.934   13.823   29.762
C   1.802   11.579   30.424
C   3.172   11.651   31.062
O   4.208   11.575   30.460
O   3.018   11.808   32.451
C   4.284   11.824   33.153
C   1.847   6.371   35.686
C   0.952   5.337   36.205
C   1.074   4.683   37.414
C   2.064   5.066   38.439
C   0.068   3.688   37.951
C   0.254   2.154   37.688
C   0.140   1.192   38.907
C   1.420   0.265   39.177
C   2.666   1.158   39.345
C   1.349   -0.778   40.408
C   2.242   -2.048   40.120
C   2.705   -2.651   41.465
C   4.201   -3.176   41.385
C   4.636   -4.638   41.567
C   5.257   -2.279   42.155
C   6.422   -1.812   41.303
C   7.215   -0.757   42.043
C   8.637   -0.362   41.525
C   9.584   -0.420   42.733
C   8.694   0.999   40.750
H   2.324   4.651   30.017
H   2.281   5.245   23.588
H   1.582   11.452   23.964
H   2.422   8.987   31.952
H   0.994   6.411   31.775
H   3.612   5.561   31.627
H   3.218   6.265   33.164
H   3.974   7.135   31.933
H   -0.588   8.061   32.104
H   -0.264   9.685   31.682
H   -0.578   8.526   34.031
H   0.316   10.142   33.906
H   4.491   2.735   28.119
H   2.983   1.832   28.241
H   3.419   3.097   29.372
H   2.972   1.070   25.842
H   4.747   1.560   25.868
H   3.990   1.095   24.400
H   1.125   7.123   21.985
H   2.127   9.686   21.969
H   3.872   7.285   22.688
H   3.550   8.326   21.297
H   3.311   6.614   21.104
H   -0.453   9.668   23.036
H   -0.411   8.495   21.738
H   -0.405   10.281   20.213
H   0.781   11.200   21.178
H   -0.923   11.183   21.639
H   0.966   14.151   25.828
H   2.040   13.474   24.949
H   2.727   14.362   26.326
H   1.036   11.741   31.183
H   4.639   12.854   33.207
H   5.168   11.306   32.782
H   4.001   11.475   34.146
H   1.995   7.087   36.494
H   2.689   5.882   35.196
H   0.050   5.234   35.602
H   2.792   5.757   38.014
H   2.718   4.286   38.829
H   1.493   5.560   39.225
H   -0.908   4.042   37.620
H   0.013   3.693   39.040
H   1.241   2.024   37.245
H   -0.538   1.944   36.968
H   -0.726   0.550   38.742
H   0.063   1.694   39.872
H   1.603   -0.223   38.220
H   3.192   1.109   38.391
H   3.330   0.840   40.149
H   2.279   2.114   39.698
H   0.331   -1.159   40.499
H   1.514   -0.266   41.356
H   3.095   -1.853   39.470
H   1.616   -2.786   39.618
H   2.065   -3.516   41.644
H   2.607   -1.952   42.295
H   4.436   -2.956   40.343
H   3.709   -5.210   41.539
H   5.061   -4.956   42.519
H   5.387   -4.942   40.838
H   5.690   -2.812   43.001
H   4.781   -1.343   42.448
H   6.018   -1.523   40.333
H   7.178   -2.587   41.178
H   7.325   -1.158   43.051
H   6.507   0.070   42.096
H   8.975   -1.011   40.718
H   10.274   -1.263   42.767
H   9.215   -0.578   43.747
H   10.209   0.472   42.686
H   9.233   1.816   41.228
H   7.697   1.380   40.528
H   9.213   0.825   39.807

