%nproc=24
%mem=75GB
#p PBE1PBE/Def2SVP td=(nstates=5)

step_851_chromophore_22 TDDFT with PBE1PBE functional

0 1
Mg   8.922   47.878   24.897
C   6.724   47.809   27.764
C   11.307   48.677   27.212
C   10.930   47.790   22.448
C   6.116   47.477   22.840
N   8.940   48.255   27.164
C   7.952   48.207   28.159
C   8.448   48.473   29.640
C   9.899   49.021   29.316
C   10.046   48.600   27.833
C   10.124   50.547   29.400
C   8.543   47.331   30.757
C   7.800   47.722   32.050
C   7.626   46.637   33.156
O   7.530   45.429   32.968
O   7.829   47.226   34.416
N   10.907   48.186   24.796
C   11.716   48.414   25.881
C   13.098   48.524   25.410
C   13.014   48.248   23.999
C   11.599   48.090   23.641
C   14.319   48.777   26.309
C   14.087   48.125   22.980
O   13.904   48.086   21.731
C   15.457   47.983   23.496
N   8.513   47.713   22.935
C   9.606   47.600   22.137
C   9.155   47.200   20.745
C   7.612   47.104   20.805
C   7.351   47.470   22.240
C   9.655   48.192   19.616
C   7.066   45.770   20.306
C   5.959   45.935   19.238
N   6.823   47.783   25.216
C   5.846   47.628   24.232
C   4.603   47.705   24.986
C   4.867   47.649   26.328
C   6.291   47.712   26.405
C   3.270   47.902   24.336
C   4.304   47.630   27.688
O   3.124   47.524   28.006
C   5.529   47.689   28.648
C   5.472   46.455   29.507
O   5.969   45.406   29.236
O   4.708   46.708   30.605
C   4.595   45.736   31.664
C   7.947   46.258   35.540
C   8.885   46.879   36.561
C   8.918   46.743   37.903
C   8.093   45.695   38.645
C   10.049   47.449   38.663
C   9.697   48.279   39.931
C   10.752   48.201   41.125
C   10.175   47.570   42.430
C   10.149   48.613   43.555
C   11.031   46.401   42.865
C   11.018   45.274   41.841
C   12.444   45.130   41.183
C   12.988   43.727   41.627
C   13.519   43.001   40.423
C   13.994   43.844   42.837
C   13.626   43.038   44.097
C   13.988   43.753   45.486
C   12.722   44.450   46.129
C   13.057   45.780   46.790
C   11.872   43.501   47.048
H   12.085   48.972   27.919
H   11.602   47.785   21.587
H   5.206   47.396   22.242
H   7.972   49.357   30.065
H   10.782   48.534   29.731
H   10.916   50.879   28.729
H   10.328   50.796   30.441
H   9.223   51.082   29.099
H   9.585   47.249   31.066
H   8.262   46.359   30.350
H   6.781   48.046   31.836
H   8.346   48.561   32.480
H   14.036   48.878   27.357
H   14.967   49.612   26.040
H   14.922   47.871   26.252
H   16.148   47.646   22.723
H   15.599   47.245   24.286
H   15.812   48.999   23.665
H   9.483   46.164   20.651
H   7.066   47.887   20.279
H   8.886   48.289   18.850
H   10.563   47.824   19.139
H   9.848   49.197   19.992
H   6.552   45.277   21.131
H   7.834   45.221   19.760
H   5.886   45.057   18.596
H   6.122   46.786   18.577
H   4.991   46.095   19.713
H   2.472   47.900   25.079
H   3.077   47.215   23.513
H   3.337   48.867   23.835
H   5.275   48.507   29.322
H   5.058   44.761   31.504
H   3.519   45.576   31.730
H   4.900   46.219   32.592
H   8.291   45.235   35.383
H   6.983   46.121   36.030
H   9.574   47.649   36.215
H   7.354   45.176   38.034
H   7.561   46.232   39.431
H   8.725   44.937   39.106
H   10.594   48.027   37.917
H   10.783   46.679   38.899
H   8.684   48.082   40.282
H   9.653   49.333   39.657
H   11.042   49.223   41.366
H   11.662   47.660   40.862
H   9.163   47.236   42.199
H   10.866   48.333   44.326
H   9.168   48.807   43.987
H   10.429   49.629   43.276
H   10.512   46.119   43.781
H   12.009   46.835   43.074
H   10.284   45.409   41.047
H   10.627   44.360   42.287
H   13.084   45.957   41.493
H   12.248   45.278   40.121
H   12.197   43.062   41.973
H   13.468   43.634   39.536
H   12.872   42.147   40.221
H   14.527   42.625   40.597
H   14.183   44.894   43.058
H   14.999   43.505   42.585
H   14.196   42.115   43.990
H   12.548   42.884   44.048
H   14.789   44.488   45.414
H   14.355   43.033   46.217
H   12.036   44.642   45.305
H   12.610   45.936   47.772
H   12.760   46.573   46.104
H   14.099   45.908   47.082
H   12.200   42.479   46.859
H   10.796   43.631   46.936
H   12.122   43.758   48.077

