%nproc=24
%mem=75GB
#p cam-b3lyp/Def2SVP td=(nstates=5)

step_1851_chromophore_12 TDDFT with cam-b3lyp functional

0 1
Mg   47.943   15.311   28.378
C   45.772   15.065   31.191
C   50.051   17.286   30.154
C   49.820   15.419   25.630
C   45.438   13.505   26.443
N   47.839   16.055   30.356
C   46.961   15.809   31.404
C   47.459   16.285   32.722
C   48.540   17.372   32.224
C   48.924   16.821   30.813
C   47.945   18.818   32.219
C   48.097   15.220   33.646
C   48.122   15.624   35.175
C   49.145   15.368   36.251
O   50.010   14.501   36.258
O   49.050   16.201   37.333
N   49.675   16.293   27.908
C   50.447   17.016   28.838
C   51.646   17.453   28.123
C   51.563   16.926   26.802
C   50.343   16.146   26.704
C   52.634   18.261   28.909
C   52.557   17.085   25.579
O   52.423   16.596   24.431
C   53.696   17.947   25.741
N   47.541   14.707   26.280
C   48.599   14.758   25.431
C   48.350   13.995   24.182
C   46.979   13.343   24.445
C   46.623   13.825   25.821
C   48.423   14.781   22.908
C   47.067   11.789   24.318
C   48.048   11.068   25.227
N   45.919   14.474   28.671
C   45.131   13.742   27.816
C   43.877   13.542   28.478
C   44.149   13.875   29.901
C   45.385   14.532   29.929
C   42.701   12.850   27.916
C   43.628   13.845   31.219
O   42.648   13.303   31.622
C   44.701   14.612   32.140
C   43.923   15.722   32.802
O   43.600   16.737   32.179
O   43.542   15.360   34.096
C   42.981   16.483   34.852
C   50.136   16.102   38.286
C   50.268   17.454   38.973
C   51.271   17.937   39.578
C   52.523   17.160   39.747
C   51.226   19.381   40.159
C   52.574   20.059   40.263
C   52.526   21.469   40.687
C   53.308   22.463   39.817
C   53.732   23.627   40.863
C   52.444   22.994   38.647
C   53.257   23.192   37.310
C   52.647   24.310   36.483
C   52.852   24.201   34.958
C   53.973   25.193   34.493
C   51.597   24.575   34.068
C   51.238   23.500   33.008
C   50.545   24.178   31.754
C   50.965   23.471   30.418
C   50.519   24.447   29.266
C   50.293   22.082   30.358
H   50.569   17.988   30.810
H   50.512   15.421   24.785
H   44.857   12.756   25.902
H   46.634   16.696   33.302
H   49.457   17.445   32.808
H   46.897   18.873   32.513
H   48.060   19.221   31.213
H   48.524   19.280   33.019
H   49.087   14.944   33.284
H   47.478   14.336   33.494
H   47.190   15.158   35.495
H   47.904   16.692   35.155
H   53.640   18.221   28.491
H   52.771   17.970   29.951
H   52.149   19.237   28.905
H   53.497   18.945   26.134
H   54.171   18.110   24.773
H   54.493   17.494   26.330
H   49.154   13.268   24.070
H   46.230   13.618   23.701
H   49.197   14.420   22.231
H   48.719   15.797   23.168
H   47.516   14.793   22.304
H   47.476   11.562   23.333
H   46.026   11.470   24.266
H   48.548   11.741   25.924
H   48.762   10.458   24.674
H   47.598   10.343   25.906
H   41.949   13.153   28.645
H   42.860   11.772   27.953
H   42.394   13.123   26.906
H   45.043   13.996   32.972
H   42.345   16.114   35.657
H   42.216   17.024   34.295
H   43.849   17.069   35.155
H   51.062   15.835   37.777
H   50.053   15.377   39.096
H   49.345   18.032   39.009
H   53.320   17.800   39.369
H   52.632   16.251   39.155
H   52.614   16.960   40.814
H   50.789   19.192   41.140
H   50.603   19.975   39.491
H   53.127   20.061   39.324
H   53.145   19.499   41.005
H   52.799   21.462   41.742
H   51.487   21.798   40.657
H   54.303   22.074   39.600
H   53.317   24.595   40.582
H   54.817   23.691   40.953
H   53.237   23.533   41.829
H   51.866   23.853   38.987
H   51.770   22.177   38.390
H   53.275   22.216   36.824
H   54.244   23.534   37.621
H   53.167   25.180   36.883
H   51.584   24.406   36.705
H   53.203   23.187   34.769
H   54.413   24.944   33.528
H   54.747   24.949   35.221
H   53.595   26.215   34.539
H   51.853   25.537   33.624
H   50.685   24.635   34.662
H   50.583   22.807   33.536
H   52.125   22.951   32.690
H   50.688   25.258   31.705
H   49.494   24.135   32.041
H   52.055   23.463   30.424
H   49.783   23.989   28.606
H   51.326   24.773   28.610
H   50.084   25.403   29.557
H   49.303   22.066   29.901
H   50.135   21.820   31.404
H   50.847   21.330   29.796

