%nproc=24
%mem=75GB
#p cam-b3lyp/Def2SVP td=(nstates=5)

step_951_chromophore_14 TDDFT with cam-b3lyp functional

0 1
Mg   45.866   44.853   43.586
C   42.576   44.185   43.386
C   46.698   41.621   43.004
C   49.017   45.955   42.862
C   45.044   48.404   43.900
N   44.799   43.087   43.086
C   43.380   43.024   43.072
C   42.869   41.598   42.736
C   44.171   40.789   42.978
C   45.340   41.847   42.988
C   44.249   39.811   44.192
C   42.162   41.561   41.306
C   42.597   42.439   40.102
C   42.297   41.865   38.717
O   41.476   40.971   38.395
O   43.113   42.519   37.808
N   47.573   43.867   43.104
C   47.751   42.534   42.856
C   49.151   42.272   42.527
C   49.853   43.534   42.433
C   48.830   44.554   42.881
C   49.614   40.913   42.217
C   51.314   43.688   42.118
O   52.074   42.852   41.643
C   52.072   45.018   42.343
N   47.024   46.929   43.671
C   48.238   47.046   43.253
C   48.622   48.573   43.114
C   47.440   49.314   43.784
C   46.441   48.190   43.757
C   49.958   48.948   43.807
C   46.951   50.570   43.021
C   46.506   51.758   43.972
N   44.203   46.082   43.662
C   44.006   47.480   43.881
C   42.548   47.701   44.003
C   41.963   46.461   43.787
C   42.986   45.522   43.555
C   41.852   48.924   44.270
C   40.757   45.680   43.674
O   39.549   46.007   43.742
C   41.092   44.157   43.439
C   40.422   43.320   44.510
O   39.853   42.303   44.203
O   40.611   43.787   45.754
C   39.986   43.231   46.880
C   42.961   42.081   36.445
C   44.168   42.393   35.629
C   45.043   41.586   35.089
C   44.914   40.099   35.325
C   46.064   42.119   34.072
C   45.562   42.554   32.645
C   45.236   43.991   32.331
C   45.521   44.540   30.866
C   45.578   46.062   30.829
C   44.509   43.968   29.826
C   45.273   43.196   28.712
C   44.308   42.346   27.886
C   44.505   42.754   26.372
C   43.459   43.915   26.011
C   44.321   41.564   25.419
C   45.716   40.931   25.216
C   46.247   41.147   23.726
C   46.971   42.499   23.462
C   46.177   43.303   22.390
C   48.458   42.420   23.244
H   46.855   40.548   42.884
H   49.939   46.138   42.306
H   44.679   49.420   44.063
H   42.112   41.164   43.388
H   44.310   40.136   42.116
H   43.329   39.937   44.764
H   45.138   39.980   44.799
H   44.342   38.809   43.774
H   41.076   41.509   41.383
H   42.449   40.577   40.934
H   43.677   42.542   40.206
H   42.122   43.412   40.229
H   49.440   40.563   41.199
H   49.180   40.167   42.882
H   50.665   40.693   42.407
H   51.867   45.350   43.361
H   51.811   45.783   41.611
H   53.152   44.891   42.280
H   48.726   48.910   42.083
H   47.829   49.589   44.764
H   50.368   48.055   44.278
H   49.914   49.840   44.431
H   50.646   49.171   42.991
H   46.115   50.346   42.358
H   47.856   51.009   42.601
H   46.721   51.607   45.029
H   45.466   52.062   43.854
H   47.099   52.641   43.731
H   40.860   48.804   44.707
H   41.553   49.253   43.274
H   42.339   49.692   44.870
H   40.716   43.808   42.477
H   39.247   43.911   47.302
H   40.848   43.125   47.539
H   39.425   42.325   46.652
H   42.213   42.751   36.022
H   42.602   41.063   36.296
H   44.320   43.463   35.485
H   45.868   39.574   35.275
H   44.238   39.552   34.668
H   44.562   40.030   36.354
H   46.791   41.319   33.932
H   46.566   42.955   34.558
H   44.670   41.928   32.613
H   46.172   42.060   31.889
H   45.810   44.553   33.068
H   44.180   44.093   32.583
H   46.559   44.267   30.678
H   46.580   46.480   30.736
H   45.009   46.465   31.667
H   45.036   46.336   29.924
H   43.962   44.704   29.236
H   43.809   43.282   30.303
H   45.878   42.466   29.249
H   45.947   43.879   28.195
H   43.267   42.565   28.124
H   44.483   41.281   28.039
H   45.452   43.285   26.276
H   43.029   44.383   26.896
H   42.520   43.506   25.638
H   43.804   44.761   25.416
H   43.835   41.908   24.505
H   43.706   40.785   25.867
H   45.710   39.849   25.348
H   46.437   41.375   25.903
H   45.426   41.028   23.020
H   46.892   40.310   23.460
H   46.888   43.042   24.403
H   45.282   42.838   21.975
H   46.802   43.561   21.536
H   45.845   44.284   22.730
H   48.740   41.368   23.196
H   48.986   42.844   24.098
H   48.627   42.964   22.314

