%nproc=24
%mem=75GB
#p cam-b3lyp/Def2SVP td=(nstates=5)

step_1251_chromophore_8 TDDFT with cam-b3lyp functional

0 1
Mg   44.283   2.317   47.268
C   42.071   5.085   46.780
C   41.481   0.192   47.351
C   46.281   -0.255   47.207
C   46.861   4.535   46.713
N   42.005   2.618   47.016
C   41.385   3.846   46.895
C   39.901   3.650   46.960
C   39.721   2.146   47.429
C   41.155   1.581   47.349
C   39.245   1.926   48.972
C   39.377   4.090   45.629
C   38.425   5.332   45.578
C   38.681   6.383   44.417
O   38.414   7.572   44.524
O   38.939   5.755   43.256
N   43.961   0.216   47.195
C   42.728   -0.449   47.184
C   43.047   -1.904   47.152
C   44.474   -2.080   47.158
C   44.986   -0.704   47.146
C   41.935   -2.876   47.348
C   45.235   -3.437   47.160
O   44.563   -4.466   47.181
C   46.759   -3.549   47.258
N   46.249   2.148   46.777
C   46.860   1.003   47.228
C   48.315   1.266   47.516
C   48.548   2.814   47.165
C   47.131   3.177   46.808
C   48.723   0.928   48.994
C   49.651   3.048   46.098
C   50.411   4.425   46.314
N   44.521   4.407   46.769
C   45.597   5.171   46.612
C   45.276   6.567   46.564
C   43.888   6.595   46.719
C   43.469   5.239   46.737
C   46.353   7.696   46.477
C   42.718   7.421   46.634
O   42.631   8.658   46.425
C   41.541   6.502   46.731
C   40.675   6.847   47.890
O   40.626   6.291   48.971
O   39.867   7.935   47.513
C   38.962   8.434   48.515
C   38.943   6.661   42.070
C   39.982   5.974   41.146
C   39.894   5.813   39.784
C   38.897   6.467   38.958
C   40.951   4.971   39.039
C   40.406   3.540   38.844
C   41.448   2.532   38.302
C   41.198   2.075   36.845
C   40.756   0.615   36.760
C   42.402   2.306   35.905
C   42.378   3.742   35.259
C   43.770   4.148   34.649
C   43.912   4.156   33.035
C   45.398   3.959   32.487
C   43.174   5.383   32.336
C   42.156   4.908   31.340
C   42.303   5.383   29.895
C   43.231   4.603   28.989
C   42.583   3.536   28.120
C   44.139   5.610   28.192
H   40.538   -0.352   47.437
H   46.980   -1.040   47.504
H   47.770   5.138   46.774
H   39.494   4.268   47.762
H   39.143   1.549   46.723
H   38.822   2.808   49.453
H   40.114   1.543   49.507
H   38.583   1.061   49.012
H   38.869   3.169   45.341
H   40.131   4.321   44.877
H   38.581   5.902   46.494
H   37.385   5.006   45.607
H   41.973   -3.793   46.761
H   41.016   -2.418   46.982
H   41.868   -3.156   48.400
H   47.106   -3.312   48.264
H   47.231   -2.867   46.550
H   46.998   -4.581   47.004
H   48.936   0.694   46.827
H   48.790   3.321   48.100
H   49.551   1.572   49.292
H   48.948   -0.136   49.065
H   47.847   1.134   49.610
H   49.069   3.149   45.183
H   50.364   2.238   45.943
H   51.451   4.341   46.001
H   50.426   4.723   47.363
H   49.966   5.204   45.696
H   46.119   8.328   45.620
H   47.277   7.207   46.167
H   46.229   8.282   47.388
H   41.005   6.608   45.788
H   39.096   9.497   48.716
H   38.956   7.856   49.439
H   37.961   8.315   48.102
H   39.196   7.701   42.274
H   38.039   6.396   41.522
H   40.791   5.488   41.693
H   38.242   5.676   38.593
H   39.456   6.835   38.097
H   38.318   7.279   39.398
H   41.850   4.822   39.638
H   41.249   5.360   38.066
H   39.545   3.538   38.176
H   40.041   3.187   39.809
H   41.501   1.703   39.008
H   42.407   3.051   38.320
H   40.363   2.661   36.462
H   41.468   0.024   36.183
H   39.806   0.378   36.281
H   40.686   0.287   37.797
H   42.366   1.649   35.036
H   43.343   2.178   36.439
H   42.143   4.426   36.074
H   41.630   3.779   34.467
H   44.533   3.466   35.025
H   44.084   5.138   34.980
H   43.412   3.230   32.754
H   46.121   4.011   33.301
H   45.752   4.770   31.850
H   45.560   3.053   31.903
H   43.918   6.088   31.965
H   42.720   6.037   33.081
H   41.228   5.211   31.824
H   41.957   3.844   31.217
H   42.705   6.396   29.916
H   41.332   5.404   29.399
H   43.772   3.940   29.664
H   42.967   2.576   28.466
H   42.803   3.584   27.054
H   41.518   3.601   28.342
H   43.717   6.614   28.183
H   44.233   5.343   27.139
H   45.122   5.621   28.662

