%nproc=24
%mem=75GB
#p blyp/Def2SVP td=(nstates=5)

step_551_chromophore_8 TDDFT with blyp functional

0 1
Mg   43.976   3.385   47.283
C   41.633   5.991   46.689
C   41.273   1.134   47.222
C   46.134   0.921   47.216
C   46.470   5.738   47.051
N   41.740   3.527   46.813
C   41.004   4.691   46.690
C   39.516   4.389   46.428
C   39.463   2.932   47.061
C   40.935   2.432   46.896
C   38.888   2.920   48.497
C   39.069   4.496   44.946
C   38.211   5.689   44.430
C   38.902   6.161   43.140
O   39.782   7.008   43.199
O   38.422   5.474   42.054
N   43.761   1.315   47.327
C   42.568   0.623   47.267
C   42.892   -0.749   47.269
C   44.272   -0.870   47.243
C   44.770   0.429   47.150
C   41.738   -1.818   47.389
C   45.064   -2.153   47.208
O   44.536   -3.199   47.528
C   46.479   -2.175   46.868
N   45.998   3.332   47.063
C   46.730   2.179   47.171
C   48.271   2.488   47.282
C   48.321   4.057   46.936
C   46.825   4.408   47.065
C   48.886   2.113   48.655
C   48.798   4.329   45.583
C   50.268   3.961   45.288
N   44.136   5.469   46.983
C   45.185   6.287   46.925
C   44.785   7.633   46.613
C   43.381   7.587   46.570
C   43.024   6.207   46.804
C   45.656   8.793   46.494
C   42.218   8.371   46.224
O   42.129   9.543   45.867
C   40.967   7.368   46.532
C   40.305   7.826   47.799
O   40.871   8.111   48.807
O   38.931   7.823   47.651
C   38.146   7.905   48.889
C   39.032   6.005   40.785
C   40.050   5.063   40.203
C   41.086   5.406   39.370
C   41.368   6.677   38.615
C   41.923   4.202   38.883
C   41.170   3.482   37.675
C   41.912   2.221   37.347
C   41.402   1.473   36.004
C   41.050   -0.030   36.140
C   42.365   1.662   34.795
C   42.038   2.969   33.997
C   43.033   4.113   34.284
C   44.082   3.992   33.193
C   45.487   4.189   33.893
C   43.842   5.098   32.101
C   43.017   4.583   30.867
C   43.236   5.462   29.576
C   43.699   4.685   28.326
C   42.508   4.698   27.312
C   45.006   5.274   27.720
H   40.375   0.513   47.247
H   46.959   0.207   47.265
H   47.333   6.404   46.990
H   38.910   5.111   46.974
H   38.744   2.311   46.527
H   38.621   3.933   48.801
H   39.699   2.568   49.133
H   38.096   2.177   48.591
H   38.582   3.579   44.613
H   39.963   4.492   44.324
H   38.135   6.476   45.180
H   37.241   5.234   44.227
H   41.806   -2.600   46.633
H   40.733   -1.405   47.311
H   41.771   -2.228   48.399
H   47.086   -1.905   47.732
H   46.440   -1.419   46.084
H   46.849   -3.092   46.409
H   48.754   1.915   46.491
H   48.847   4.630   47.700
H   49.472   1.195   48.605
H   48.147   1.981   49.445
H   49.582   2.911   48.914
H   48.756   5.408   45.436
H   48.021   3.843   44.992
H   50.396   2.885   45.169
H   50.745   4.097   46.258
H   50.742   4.653   44.592
H   46.251   8.692   45.587
H   46.403   8.861   47.286
H   44.990   9.647   46.618
H   40.221   7.310   45.739
H   38.563   8.623   49.596
H   38.032   6.967   49.432
H   37.137   8.203   48.605
H   39.515   6.980   40.844
H   38.172   6.182   40.139
H   39.924   4.010   40.454
H   42.235   7.163   39.061
H   40.565   7.402   38.745
H   41.550   6.404   37.575
H   42.017   3.496   39.708
H   42.961   4.453   38.663
H   41.105   4.188   36.848
H   40.187   3.118   37.975
H   41.901   1.481   38.147
H   42.981   2.407   37.241
H   40.481   2.024   35.814
H   40.000   -0.276   35.985
H   41.220   -0.390   37.154
H   41.646   -0.636   35.457
H   42.101   0.855   34.112
H   43.423   1.552   35.033
H   41.126   3.406   34.403
H   41.866   2.737   32.946
H   43.420   3.976   35.293
H   42.526   5.075   34.361
H   44.053   2.992   32.759
H   45.798   5.233   33.906
H   46.287   3.659   33.375
H   45.460   3.909   34.946
H   44.805   5.284   31.626
H   43.620   6.059   32.566
H   41.978   4.554   31.195
H   43.349   3.577   30.608
H   44.039   6.171   29.778
H   42.359   6.082   29.388
H   43.847   3.621   28.512
H   42.758   5.132   26.344
H   41.605   5.158   27.714
H   42.075   3.722   27.093
H   45.139   4.942   26.690
H   45.867   4.821   28.211
H   45.028   6.363   27.772

