%nproc=24
%mem=50gb
#p ZINDO=(nstates=5)

step_601_chromophore_6 ZINDO

0 1
Mg   16.876   -3.019   28.208
C   16.062   -0.801   30.883
C   18.972   -4.777   30.351
C   18.536   -4.580   25.622
C   15.761   -0.587   26.037
N   17.506   -2.797   30.380
C   16.889   -1.921   31.301
C   17.273   -2.277   32.745
C   18.486   -3.289   32.524
C   18.262   -3.682   31.019
C   19.967   -2.802   32.980
C   16.101   -2.814   33.637
C   16.181   -2.439   35.163
C   17.501   -2.217   35.824
O   18.256   -1.259   35.629
O   17.884   -3.288   36.594
N   18.351   -4.590   27.980
C   19.064   -5.153   28.983
C   19.945   -6.167   28.511
C   19.689   -6.202   27.110
C   18.744   -5.105   26.873
C   20.829   -7.059   29.433
C   20.279   -7.056   26.065
O   19.818   -7.084   24.935
C   21.352   -8.074   26.408
N   17.025   -2.687   26.135
C   17.755   -3.475   25.291
C   17.629   -2.997   23.858
C   16.674   -1.705   23.998
C   16.494   -1.655   25.446
C   18.960   -2.622   23.073
C   15.296   -1.854   23.267
C   14.696   -0.583   22.672
N   15.909   -1.199   28.395
C   15.362   -0.399   27.358
C   14.518   0.666   27.926
C   14.808   0.511   29.300
C   15.614   -0.638   29.574
C   13.846   1.708   27.089
C   14.698   1.172   30.584
O   14.146   2.291   30.809
C   15.449   0.264   31.678
C   16.449   1.181   32.343
O   17.616   1.395   32.022
O   15.885   1.830   33.437
C   16.672   2.938   34.005
C   19.137   -3.132   37.255
C   19.342   -4.397   38.034
C   20.047   -4.732   39.155
C   20.908   -3.675   39.911
C   20.013   -6.137   39.800
C   21.371   -6.874   39.641
C   21.854   -7.775   40.839
C   23.213   -8.401   40.563
C   22.869   -9.709   39.837
C   24.181   -8.511   41.761
C   25.579   -7.897   41.607
C   26.706   -8.381   42.537
C   27.771   -9.150   41.702
C   27.359   -10.667   41.566
C   29.171   -9.049   42.191
C   30.200   -9.378   41.131
C   31.298   -10.420   41.574
C   31.925   -11.088   40.345
C   32.913   -10.158   39.565
C   32.445   -12.470   40.696
H   19.604   -5.260   31.099
H   19.020   -4.956   24.719
H   15.777   0.327   25.439
H   17.689   -1.374   33.193
H   18.334   -4.161   33.159
H   20.272   -3.391   33.845
H   19.828   -1.779   33.329
H   20.687   -3.089   32.213
H   15.901   -3.884   33.565
H   15.209   -2.292   33.291
H   15.622   -3.089   35.835
H   15.572   -1.537   35.104
H   21.829   -6.666   29.249
H   20.880   -8.100   29.113
H   20.597   -6.985   30.495
H   22.152   -7.621   26.994
H   21.876   -8.551   25.578
H   20.843   -8.868   26.954
H   17.072   -3.757   23.310
H   17.234   -0.787   23.819
H   18.806   -1.766   22.416
H   19.308   -3.476   22.492
H   19.810   -2.374   23.708
H   14.605   -2.158   24.052
H   15.377   -2.624   22.499
H   15.003   -0.594   21.626
H   15.173   0.217   23.239
H   13.609   -0.527   22.725
H   14.142   2.707   27.409
H   12.782   1.714   27.324
H   13.987   1.558   26.018
H   14.666   -0.038   32.373
H   16.427   3.885   33.525
H   17.753   2.797   33.989
H   16.370   2.891   35.051
H   19.279   -2.351   38.002
H   19.881   -3.085   36.459
H   18.778   -5.226   37.605
H   20.852   -2.660   39.518
H   21.983   -3.859   39.912
H   20.468   -3.538   40.899
H   19.306   -6.751   39.242
H   19.782   -6.093   40.864
H   22.125   -6.153   39.326
H   21.211   -7.594   38.838
H   21.079   -8.530   40.973
H   21.954   -7.059   41.654
H   23.727   -7.744   39.861
H   23.135   -10.596   40.411
H   23.519   -9.719   38.961
H   21.870   -9.759   39.405
H   24.327   -9.552   42.049
H   23.666   -7.993   42.570
H   25.458   -6.853   41.896
H   25.653   -7.796   40.524
H   26.134   -9.015   43.214
H   27.032   -7.613   43.238
H   27.666   -8.723   40.705
H   28.172   -11.322   41.880
H   27.103   -10.883   40.528
H   26.447   -10.846   42.135
H   29.196   -9.575   43.146
H   29.346   -8.046   42.580
H   30.601   -8.476   40.670
H   29.538   -9.840   40.398
H   30.901   -11.106   42.322
H   32.011   -9.787   42.102
H   31.149   -11.264   39.601
H   32.682   -10.121   38.501
H   33.947   -10.502   39.545
H   32.927   -9.140   39.955
H   32.226   -13.177   39.896
H   31.993   -12.844   41.615
H   33.534   -12.485   40.716

