%nproc=24
%mem=50gb
#p ZINDO=(nstates=5)

step_101_chromophore_20 ZINDO

0 1
Mg   7.143   56.764   41.186
C   6.597   53.411   40.595
C   10.484   56.297   40.009
C   7.642   60.133   41.160
C   3.832   57.283   41.876
N   8.460   55.053   40.332
C   8.024   53.755   40.342
C   9.154   52.854   39.863
C   10.369   53.674   40.368
C   9.761   55.075   40.229
C   10.876   53.383   41.798
C   8.988   52.520   38.374
C   10.361   52.243   37.573
C   10.499   50.969   36.708
O   10.585   49.784   37.158
O   10.418   51.228   35.346
N   8.810   58.033   40.639
C   10.032   57.626   40.196
C   10.882   58.805   40.048
C   10.110   59.877   40.522
C   8.795   59.379   40.746
C   12.276   58.680   39.462
C   10.698   61.277   40.738
O   11.863   61.539   40.444
C   9.952   62.372   41.453
N   5.800   58.476   41.108
C   6.278   59.718   41.302
C   5.091   60.747   41.310
C   3.941   59.835   41.596
C   4.515   58.458   41.543
C   5.150   61.997   42.283
C   2.744   60.156   40.613
C   1.261   59.940   40.936
N   5.566   55.613   41.307
C   4.236   55.922   41.718
C   3.591   54.710   42.074
C   4.455   53.729   41.610
C   5.635   54.278   41.094
C   2.279   54.531   42.819
C   4.582   52.267   41.497
O   3.793   51.351   41.807
C   5.867   52.044   40.654
C   5.467   51.434   39.350
O   5.556   52.017   38.296
O   5.007   50.142   39.582
C   4.546   49.500   38.352
C   10.108   50.132   34.462
C   9.284   50.694   33.254
C   7.968   50.722   33.228
C   6.984   50.052   34.238
C   7.246   51.602   32.167
C   7.241   53.091   32.322
C   7.544   53.921   31.026
C   8.659   54.986   31.142
C   8.139   56.455   31.118
C   9.580   54.772   29.929
C   11.066   55.096   30.245
C   11.677   56.333   29.625
C   12.753   55.984   28.568
C   14.156   56.014   29.245
C   12.694   56.874   27.286
C   13.840   56.592   26.347
C   13.378   56.050   24.914
C   13.446   57.109   23.861
C   12.229   58.129   23.744
C   13.859   56.430   22.503
H   11.560   56.122   39.942
H   7.727   61.219   41.238
H   2.806   57.416   42.227
H   9.342   51.951   40.444
H   11.300   53.519   39.822
H   10.312   52.561   42.239
H   10.895   54.218   42.498
H   11.909   53.050   41.694
H   8.442   53.282   37.818
H   8.371   51.633   38.231
H   11.164   52.082   38.291
H   10.800   53.026   36.955
H   12.789   59.368   40.134
H   12.326   58.963   38.411
H   12.789   57.722   39.545
H   9.480   61.938   42.334
H   9.293   62.889   40.756
H   10.704   63.112   41.723
H   5.126   61.115   40.285
H   3.658   60.017   42.633
H   6.141   62.079   42.730
H   4.414   61.936   43.084
H   5.037   62.866   41.635
H   2.767   59.368   39.861
H   2.894   61.181   40.274
H   0.832   59.135   40.340
H   0.707   60.851   40.710
H   1.131   59.753   42.002
H   1.635   54.111   42.047
H   1.842   55.408   43.297
H   2.417   53.886   43.687
H   6.550   51.326   41.107
H   3.935   50.196   37.777
H   4.015   48.585   38.614
H   5.345   49.135   37.707
H   9.583   49.271   34.875
H   11.036   49.899   33.941
H   9.885   51.056   32.420
H   6.375   49.357   33.661
H   6.375   50.836   34.689
H   7.471   49.405   34.967
H   6.207   51.277   32.117
H   7.840   51.293   31.307
H   7.971   53.254   33.115
H   6.270   53.338   32.752
H   6.571   54.308   30.723
H   7.758   53.215   30.223
H   9.129   54.871   32.119
H   7.976   56.790   30.094
H   8.877   57.152   31.515
H   7.167   56.516   31.607
H   9.377   55.473   29.120
H   9.605   53.776   29.486
H   11.653   54.214   29.989
H   11.189   55.244   31.318
H   12.138   56.937   30.406
H   10.977   57.005   29.127
H   12.593   55.014   28.096
H   14.782   56.902   29.161
H   14.699   55.163   28.832
H   14.145   55.888   30.327
H   12.605   57.892   27.667
H   11.736   56.739   26.784
H   14.429   55.767   26.747
H   14.509   57.452   26.371
H   12.348   55.696   24.960
H   14.011   55.177   24.750
H   14.204   57.860   24.084
H   11.689   58.187   22.798
H   12.526   59.170   23.866
H   11.455   57.905   24.478
H   12.924   56.277   21.964
H   14.320   55.459   22.684
H   14.545   57.035   21.911

