%nproc=24
%mem=75GB
#p PBE1PBE/Def2SVP td=(nstates=5)

step_251_chromophore_20 TDDFT with PBE1PBE functional

0 1
Mg   6.736   57.361   41.871
C   5.576   54.032   41.844
C   9.547   56.260   40.292
C   7.503   60.627   41.218
C   3.489   58.254   43.037
N   7.420   55.352   41.012
C   6.899   54.109   41.231
C   7.688   53.009   40.500
C   9.083   53.800   40.396
C   8.663   55.237   40.581
C   10.168   53.391   41.428
C   7.125   52.637   39.055
C   7.434   51.265   38.476
C   8.381   51.075   37.272
O   9.435   50.461   37.224
O   7.895   51.703   36.157
N   8.344   58.413   40.906
C   9.446   57.743   40.460
C   10.471   58.629   40.124
C   9.934   59.942   40.403
C   8.523   59.740   40.838
C   11.847   58.223   39.610
C   10.741   61.207   40.217
O   11.930   61.131   39.813
C   10.222   62.636   40.606
N   5.631   59.107   42.116
C   6.197   60.371   41.797
C   5.364   61.471   42.394
C   3.990   60.815   42.651
C   4.370   59.306   42.688
C   5.805   62.139   43.716
C   2.941   61.093   41.450
C   2.151   62.393   41.462
N   4.971   56.310   42.515
C   3.755   56.802   42.965
C   2.843   55.787   43.185
C   3.534   54.624   42.804
C   4.818   55.007   42.381
C   1.454   55.973   43.709
C   3.466   53.259   42.780
O   2.615   52.509   43.216
C   4.680   52.847   41.921
C   4.094   52.403   40.614
O   3.410   53.090   39.921
O   4.402   51.062   40.378
C   3.730   50.547   39.236
C   8.516   51.210   34.915
C   7.703   51.478   33.575
C   6.734   50.673   33.080
C   5.908   49.690   33.960
C   6.157   50.947   31.722
C   4.965   51.972   31.703
C   5.019   52.751   30.347
C   5.782   54.159   30.339
C   4.986   55.382   30.410
C   6.919   54.217   29.282
C   8.196   54.889   29.893
C   8.567   56.193   29.197
C   9.110   57.239   30.183
C   8.022   58.161   30.605
C   10.257   58.085   29.521
C   11.635   57.723   30.238
C   12.402   56.561   29.684
C   13.485   56.983   28.683
C   13.234   56.456   27.277
C   14.920   56.835   29.187
H   10.541   55.933   39.979
H   7.775   61.685   41.222
H   2.572   58.593   43.523
H   7.892   52.149   41.137
H   9.495   53.565   39.415
H   10.793   52.708   40.852
H   9.750   52.844   42.273
H   10.768   54.246   41.740
H   7.524   53.320   38.305
H   6.054   52.839   39.082
H   6.453   50.866   38.214
H   7.811   50.650   39.293
H   12.726   58.795   39.909
H   11.622   58.247   38.544
H   12.111   57.238   39.995
H   10.036   62.674   41.679
H   9.328   62.731   39.990
H   10.832   63.476   40.274
H   5.238   62.217   41.610
H   3.542   61.146   43.588
H   5.157   61.947   44.571
H   6.237   63.124   43.538
H   6.703   61.588   43.995
H   2.286   60.231   41.575
H   3.437   61.034   40.481
H   2.269   62.891   40.500
H   2.535   63.039   42.252
H   1.083   62.208   41.580
H   0.804   55.417   43.034
H   1.120   57.010   43.657
H   1.323   55.574   44.715
H   5.176   52.014   42.418
H   2.789   50.090   39.541
H   4.235   49.693   38.783
H   3.522   51.316   38.494
H   8.588   50.124   34.983
H   9.458   51.741   34.780
H   8.135   52.203   32.885
H   4.855   49.967   34.003
H   6.261   49.780   34.987
H   5.984   48.733   33.443
H   5.866   49.979   31.314
H   6.880   51.308   30.990
H   4.961   52.711   32.504
H   4.058   51.377   31.811
H   3.967   52.844   30.076
H   5.494   52.068   29.642
H   6.315   54.152   31.290
H   5.296   56.067   29.621
H   5.138   55.895   31.360
H   3.918   55.169   30.357
H   6.498   54.621   28.361
H   7.286   53.225   29.020
H   9.031   54.190   29.845
H   8.032   55.072   30.954
H   7.672   56.462   28.637
H   9.327   55.930   28.460
H   9.397   56.814   31.145
H   8.340   58.803   31.427
H   7.133   57.625   30.938
H   7.772   58.813   29.768
H   10.080   59.158   29.592
H   10.306   57.767   28.480
H   11.437   57.584   31.301
H   12.155   58.677   30.331
H   11.766   55.870   29.132
H   12.843   55.936   30.460
H   13.311   58.056   28.612
H   12.453   55.697   27.231
H   14.072   55.981   26.768
H   12.965   57.251   26.581
H   15.526   56.325   28.437
H   14.881   56.161   30.043
H   15.307   57.773   29.585

