%nproc=24
%mem=75GB
#p blyp/Def2SVP td=(nstates=5)

step_51_chromophore_8 TDDFT with blyp functional

0 1
Mg   44.435   3.202   47.837
C   42.190   5.813   47.212
C   41.824   1.035   47.404
C   46.744   0.756   47.869
C   47.104   5.584   47.504
N   42.300   3.454   47.060
C   41.586   4.599   47.040
C   40.111   4.277   46.676
C   40.007   2.795   46.999
C   41.517   2.354   47.121
C   39.135   2.367   48.218
C   39.712   4.558   45.124
C   38.525   5.379   44.953
C   37.991   5.619   43.542
O   36.923   5.178   43.147
O   38.824   6.400   42.815
N   44.269   1.223   47.869
C   43.123   0.472   47.653
C   43.454   -0.915   47.738
C   44.781   -1.030   48.121
C   45.342   0.397   47.957
C   42.446   -2.016   47.475
C   45.493   -2.332   48.566
O   44.836   -3.389   48.548
C   46.939   -2.443   48.934
N   46.625   3.153   47.685
C   47.370   1.992   47.822
C   48.862   2.255   47.772
C   48.942   3.836   47.797
C   47.440   4.230   47.688
C   49.672   1.571   48.991
C   49.727   4.471   46.622
C   50.934   5.438   46.930
N   44.669   5.277   47.339
C   45.769   6.105   47.293
C   45.306   7.453   47.021
C   43.935   7.486   47.117
C   43.582   6.102   47.249
C   46.256   8.553   46.727
C   42.699   8.254   47.160
O   42.457   9.466   47.032
C   41.464   7.216   47.253
C   40.653   7.268   48.563
O   41.027   6.768   49.615
O   39.390   7.736   48.270
C   38.406   7.810   49.393
C   38.503   6.489   41.404
C   39.773   6.155   40.630
C   39.906   5.789   39.387
C   38.852   5.625   38.293
C   41.334   5.360   38.943
C   41.782   4.026   39.539
C   42.845   3.388   38.587
C   42.254   2.249   37.660
C   42.449   0.938   38.475
C   43.005   2.264   36.257
C   42.166   3.219   35.311
C   43.007   4.461   34.814
C   43.629   4.264   33.371
C   45.144   4.338   33.462
C   43.086   5.365   32.364
C   42.664   4.603   31.141
C   43.735   4.347   30.103
C   43.262   4.264   28.654
C   44.251   4.757   27.580
C   42.694   2.897   28.370
H   40.986   0.345   47.288
H   47.457   -0.071   47.886
H   47.935   6.290   47.549
H   39.574   4.888   47.401
H   39.538   2.269   46.167
H   38.354   1.643   47.983
H   38.803   3.251   48.762
H   39.653   1.852   49.027
H   39.440   3.681   44.537
H   40.496   5.021   44.524
H   38.739   6.368   45.358
H   37.738   4.921   45.552
H   42.844   -2.655   46.687
H   41.506   -1.667   47.049
H   42.253   -2.604   48.372
H   47.488   -2.769   48.051
H   46.921   -3.264   49.652
H   47.374   -1.535   49.351
H   49.287   1.905   46.832
H   49.394   4.033   48.769
H   50.367   0.756   48.791
H   49.013   1.075   49.703
H   50.190   2.285   49.632
H   49.023   4.920   45.922
H   50.164   3.636   46.074
H   51.774   5.070   46.340
H   51.201   5.250   47.970
H   50.736   6.480   46.680
H   47.285   8.329   47.009
H   45.998   9.412   47.347
H   46.220   8.640   45.641
H   40.759   7.284   46.425
H   37.470   7.558   48.894
H   38.428   8.826   49.785
H   38.600   7.181   50.262
H   38.264   7.526   41.172
H   37.716   5.803   41.088
H   40.673   6.040   41.234
H   39.094   4.822   37.597
H   38.741   6.533   37.701
H   37.868   5.619   38.762
H   41.935   6.234   39.192
H   41.404   5.383   37.855
H   40.921   3.358   39.558
H   42.321   4.244   40.461
H   43.603   3.009   39.273
H   43.312   4.168   37.986
H   41.178   2.354   37.527
H   42.404   1.102   39.552
H   43.412   0.471   38.271
H   41.652   0.204   38.352
H   43.023   1.232   35.906
H   44.058   2.509   36.393
H   41.198   3.644   35.578
H   41.836   2.651   34.441
H   43.769   4.807   35.513
H   42.326   5.302   34.937
H   43.407   3.284   32.949
H   45.594   4.001   32.528
H   45.453   3.828   34.374
H   45.403   5.389   33.587
H   43.873   6.054   32.060
H   42.198   5.919   32.667
H   41.908   5.270   30.726
H   42.051   3.712   31.270
H   44.145   3.407   30.472
H   44.660   4.910   30.224
H   42.459   4.984   28.495
H   44.171   5.834   27.434
H   44.167   4.272   26.607
H   45.271   4.570   27.917
H   41.951   2.539   29.084
H   43.499   2.163   28.365
H   42.289   2.995   27.363

