%nproc=24
%mem=75GB
#p cam-b3lyp/Def2SVP td=(nstates=5)

step_401_chromophore_15 TDDFT with cam-b3lyp functional

0 1
Mg   46.033   34.827   28.220
C   44.433   32.806   30.588
C   46.072   37.410   30.468
C   47.292   36.933   25.787
C   45.841   32.227   25.881
N   45.405   35.007   30.337
C   44.850   34.031   31.129
C   44.895   34.472   32.631
C   45.108   36.019   32.471
C   45.585   36.163   31.018
C   43.794   36.841   32.696
C   46.162   33.772   33.331
C   46.198   33.616   34.860
C   45.285   34.592   35.646
O   44.072   34.547   35.687
O   46.013   35.458   36.329
N   46.781   36.854   28.206
C   46.621   37.792   29.209
C   47.210   39.059   28.857
C   47.581   38.916   27.456
C   47.239   37.531   27.098
C   47.338   40.232   29.782
C   48.292   39.891   26.463
O   48.630   39.502   25.356
C   48.520   41.356   26.900
N   46.438   34.604   26.180
C   46.876   35.635   25.455
C   47.050   35.192   23.941
C   46.714   33.652   23.989
C   46.346   33.419   25.449
C   46.379   36.066   22.870
C   47.806   32.648   23.478
C   47.478   31.711   22.307
N   45.279   32.893   28.165
C   45.364   31.949   27.169
C   44.770   30.706   27.611
C   44.386   30.939   29.009
C   44.697   32.306   29.269
C   44.730   29.365   26.844
C   43.904   30.399   30.250
O   43.530   29.246   30.462
C   43.545   31.655   31.186
C   43.851   31.258   32.589
O   44.834   30.731   33.014
O   42.820   31.682   33.369
C   42.865   31.283   34.804
C   45.377   36.210   37.420
C   46.205   37.440   37.736
C   45.698   38.610   38.287
C   44.338   38.773   38.815
C   46.713   39.692   38.661
C   47.145   40.606   37.525
C   48.614   41.039   37.549
C   48.868   42.559   37.815
C   50.257   43.015   37.279
C   48.567   43.075   39.233
C   47.090   43.429   39.412
C   46.911   44.842   40.057
C   46.367   45.865   38.985
C   47.586   46.712   38.492
C   45.228   46.611   39.655
C   43.889   45.813   39.491
C   42.765   46.339   40.435
C   41.582   47.088   39.635
C   40.697   47.977   40.478
C   40.719   46.028   38.923
H   46.089   38.218   31.202
H   47.485   37.555   24.910
H   45.833   31.448   25.116
H   44.003   34.175   33.182
H   45.823   36.380   33.210
H   43.103   36.273   33.319
H   43.200   37.091   31.817
H   43.783   37.770   33.267
H   47.118   34.089   32.913
H   46.135   32.779   32.884
H   47.243   33.845   35.066
H   46.024   32.577   35.142
H   46.669   41.048   29.509
H   48.418   40.377   29.767
H   47.150   39.857   30.788
H   48.865   41.302   27.932
H   47.566   41.884   26.927
H   49.178   41.841   26.179
H   48.116   35.312   23.747
H   45.772   33.398   23.505
H   47.172   36.445   22.225
H   45.856   36.922   23.296
H   45.664   35.522   22.252
H   48.283   32.041   24.247
H   48.669   33.221   23.139
H   48.207   31.904   21.521
H   46.453   31.867   21.969
H   47.485   30.639   22.501
H   45.411   29.274   25.998
H   43.742   29.134   26.446
H   44.975   28.635   27.615
H   42.498   31.868   30.968
H   43.488   30.405   34.973
H   41.898   31.256   35.307
H   43.212   32.078   35.465
H   45.361   35.608   38.328
H   44.396   36.553   37.089
H   47.229   37.420   37.362
H   43.714   37.879   38.807
H   43.852   39.525   38.193
H   44.391   39.231   39.802
H   47.514   39.162   39.177
H   46.316   40.406   39.383
H   46.396   41.397   37.488
H   47.002   40.088   36.577
H   49.042   40.868   36.561
H   49.242   40.502   38.259
H   48.184   43.136   37.192
H   50.810   43.489   38.090
H   50.225   43.773   36.496
H   50.795   42.118   36.973
H   49.300   43.864   39.405
H   48.795   42.345   40.010
H   46.625   42.714   40.091
H   46.482   43.386   38.508
H   47.876   45.184   40.431
H   46.352   44.673   40.978
H   46.011   45.421   38.055
H   47.200   47.684   38.183
H   48.084   46.222   37.656
H   48.304   46.946   39.278
H   45.133   47.598   39.201
H   45.447   46.796   40.707
H   43.967   44.741   39.671
H   43.583   45.897   38.448
H   43.166   47.073   41.133
H   42.525   45.429   40.985
H   42.000   47.630   38.786
H   41.157   48.107   41.457
H   39.655   47.667   40.566
H   40.674   48.912   39.918
H   39.645   46.191   39.012
H   40.961   45.015   39.242
H   40.955   46.152   37.866

