%nproc=24
%mem=75GB
#p wB97XD/Def2SVP td=(nstates=5)

step_1_chromophore_4 TDDFT with wB97XD functional

0 1
Mg   8.828   2.979   28.391
C   10.365   1.604   31.107
C   7.597   5.545   30.492
C   7.114   4.233   25.802
C   10.134   0.474   26.437
N   8.693   3.351   30.578
C   9.525   2.685   31.487
C   9.406   3.272   32.922
C   8.460   4.464   32.618
C   8.161   4.436   31.130
C   7.123   4.696   33.443
C   10.760   3.727   33.625
C   10.509   4.328   35.034
C   10.968   3.414   36.171
O   12.221   3.189   36.417
O   9.956   2.876   36.923
N   7.544   4.728   28.173
C   7.388   5.736   29.100
C   6.471   6.693   28.492
C   6.332   6.293   27.124
C   7.022   5.053   26.955
C   5.959   7.850   29.260
C   5.418   7.051   26.099
O   5.120   6.601   24.974
C   4.785   8.363   26.483
N   8.635   2.448   26.519
C   7.831   3.126   25.560
C   7.672   2.298   24.305
C   8.944   1.456   24.384
C   9.323   1.476   25.858
C   6.367   1.433   24.304
C   10.116   2.066   23.583
C   10.222   1.751   22.115
N   9.991   1.292   28.619
C   10.573   0.454   27.746
C   11.354   -0.511   28.462
C   11.332   -0.107   29.780
C   10.516   1.034   29.827
C   12.085   -1.615   27.781
C   11.825   -0.420   31.053
O   12.582   -1.291   31.436
C   11.205   0.709   32.003
C   10.440   0.028   33.082
O   9.421   -0.608   32.964
O   10.938   0.321   34.287
C   10.212   -0.271   35.476
C   10.442   2.436   38.219
C   10.585   3.612   39.101
C   10.938   3.628   40.413
C   11.388   2.464   41.283
C   11.155   4.989   41.129
C   9.752   5.588   41.576
C   9.542   7.039   41.239
C   9.091   7.969   42.372
C   7.654   7.531   42.831
C   9.102   9.442   41.992
C   10.452   10.007   42.316
C   10.402   11.334   43.141
C   10.943   11.173   44.557
C   12.074   12.167   44.841
C   9.848   11.107   45.671
C   9.848   9.934   46.687
C   8.670   8.916   46.459
C   7.660   8.833   47.644
C   7.954   7.651   48.642
C   6.249   8.709   47.233
H   7.388   6.379   31.165
H   6.566   4.634   24.947
H   10.686   -0.275   25.866
H   8.895   2.543   33.551
H   9.005   5.400   32.744
H   6.855   5.733   33.647
H   7.101   4.029   34.305
H   6.335   4.379   32.760
H   11.201   4.410   32.900
H   11.412   2.857   33.702
H   9.473   4.656   35.119
H   11.135   5.217   35.105
H   4.892   7.697   29.423
H   6.279   8.735   28.710
H   6.467   7.932   30.221
H   4.238   8.773   25.634
H   5.636   9.032   26.618
H   4.162   8.370   27.377
H   7.642   2.930   23.417
H   8.800   0.423   24.068
H   6.459   0.583   24.979
H   6.138   1.095   23.293
H   5.576   2.107   24.631
H   11.088   1.857   24.028
H   10.100   3.151   23.687
H   10.173   2.704   21.589
H   9.271   1.263   21.901
H   11.070   1.121   21.846
H   13.127   -1.339   27.624
H   11.639   -2.062   26.892
H   12.108   -2.427   28.508
H   12.027   1.281   32.434
H   9.156   -0.028   35.356
H   10.523   0.160   36.428
H   10.374   -1.349   35.460
H   11.342   1.826   38.135
H   9.578   1.846   38.525
H   10.350   4.580   38.659
H   12.457   2.253   41.271
H   10.877   1.594   40.869
H   11.041   2.646   42.300
H   11.642   5.592   40.363
H   11.695   4.988   42.076
H   9.692   5.373   42.643
H   8.983   4.976   41.106
H   8.809   7.066   40.433
H   10.489   7.336   40.789
H   9.661   7.630   43.237
H   6.946   8.352   42.936
H   7.823   7.050   43.795
H   7.297   6.769   42.139
H   8.294   10.092   42.329
H   8.911   9.357   40.922
H   11.011   10.375   41.455
H   11.061   9.262   42.828
H   9.398   11.735   43.276
H   10.899   12.154   42.622
H   11.504   10.238   44.574
H   12.984   11.571   44.763
H   12.079   12.453   45.893
H   12.336   12.989   44.175
H   8.944   10.967   45.079
H   9.807   11.991   46.308
H   9.842   10.217   47.739
H   10.774   9.381   46.530
H   9.156   7.942   46.407
H   7.992   8.997   45.609
H   7.638   9.788   48.167
H   7.105   7.470   49.301
H   8.786   7.889   49.304
H   8.110   6.706   48.121
H   6.036   8.417   46.205
H   5.724   9.614   47.540
H   5.699   7.869   47.658

