%nproc=24
%mem=75GB
#p wB97XD/Def2SVP td=(nstates=5)

step_1501_chromophore_12 TDDFT with wB97XD functional

0 1
Mg   47.743   15.257   27.457
C   45.586   14.980   30.261
C   49.630   17.399   29.321
C   49.688   15.361   24.871
C   45.404   13.324   25.673
N   47.651   16.029   29.579
C   46.734   15.746   30.608
C   47.055   16.422   31.940
C   48.134   17.470   31.432
C   48.576   16.870   30.033
C   47.545   18.902   31.325
C   47.605   15.384   32.983
C   47.074   15.585   34.429
C   48.126   15.438   35.580
O   48.615   14.399   35.897
O   48.330   16.623   36.253
N   49.440   16.223   27.159
C   50.086   17.028   28.042
C   51.347   17.369   27.457
C   51.382   16.846   26.105
C   50.116   16.139   25.981
C   52.455   18.040   28.228
C   52.466   16.866   25.028
O   52.283   16.375   23.881
C   53.762   17.548   25.221
N   47.540   14.447   25.556
C   48.563   14.617   24.619
C   48.288   13.875   23.352
C   46.908   13.139   23.625
C   46.615   13.671   25.077
C   48.181   14.785   22.113
C   47.022   11.624   23.652
C   47.611   10.853   22.480
N   45.853   14.403   27.876
C   45.039   13.682   27.034
C   43.823   13.353   27.746
C   43.970   13.802   29.090
C   45.253   14.482   29.055
C   42.583   12.542   27.127
C   43.401   13.871   30.378
O   42.278   13.554   30.743
C   44.501   14.590   31.283
C   43.809   15.714   31.955
O   43.726   16.872   31.569
O   43.482   15.324   33.273
C   42.973   16.404   34.183
C   49.401   16.535   37.212
C   49.626   17.814   37.889
C   50.531   18.166   38.875
C   51.492   17.214   39.527
C   50.636   19.574   39.485
C   51.879   20.381   39.302
C   51.763   21.958   39.270
C   52.538   22.536   37.985
C   54.049   22.525   38.324
C   51.792   23.834   37.578
C   51.754   24.003   36.030
C   52.886   24.972   35.530
C   53.455   24.530   34.150
C   54.825   25.235   33.945
C   52.430   24.744   32.976
C   52.501   23.494   32.061
C   51.995   23.991   30.700
C   50.457   23.802   30.556
C   50.002   22.337   30.522
C   49.805   24.605   29.424
H   50.246   18.051   29.943
H   50.463   15.081   24.155
H   44.636   12.753   25.149
H   46.234   16.974   32.398
H   49.065   17.478   32.001
H   48.294   19.647   31.592
H   46.659   18.936   31.959
H   47.339   19.277   30.322
H   48.689   15.488   32.942
H   47.287   14.378   32.708
H   46.408   14.767   34.702
H   46.604   16.544   34.649
H   51.940   18.422   29.109
H   52.866   18.815   27.580
H   53.119   17.274   28.630
H   53.648   18.626   25.331
H   54.335   17.287   24.331
H   54.125   17.169   26.177
H   49.111   13.201   23.115
H   46.122   13.428   22.928
H   49.197   14.735   21.723
H   47.946   15.836   22.283
H   47.578   14.218   21.404
H   46.004   11.293   23.860
H   47.640   11.357   24.509
H   46.924   10.086   22.122
H   48.581   10.477   22.806
H   47.880   11.433   21.597
H   42.214   11.637   27.611
H   42.769   12.241   26.096
H   41.656   13.116   27.155
H   44.725   13.916   32.110
H   42.800   15.920   35.145
H   42.027   16.883   33.934
H   43.706   17.197   34.334
H   50.355   16.232   36.781
H   49.120   15.780   37.947
H   48.881   18.561   37.613
H   51.172   17.124   40.565
H   52.497   17.635   39.530
H   51.425   16.251   39.021
H   50.310   19.551   40.525
H   49.881   20.211   39.025
H   52.338   19.880   38.449
H   52.452   20.161   40.203
H   52.324   22.434   40.075
H   50.740   22.333   39.293
H   52.403   21.748   37.243
H   54.658   22.031   37.567
H   54.255   21.974   39.241
H   54.445   23.540   38.357
H   52.291   24.725   37.958
H   50.752   23.846   37.904
H   50.762   24.363   35.755
H   51.888   23.037   35.544
H   53.730   24.713   36.168
H   52.633   26.022   35.680
H   53.541   23.444   34.174
H   55.300   24.964   33.002
H   55.539   24.910   34.701
H   54.568   26.294   33.918
H   52.528   25.673   32.416
H   51.411   24.868   33.343
H   51.864   22.681   32.411
H   53.515   23.188   31.802
H   52.525   23.294   30.051
H   52.259   25.028   30.492
H   49.986   24.294   31.407
H   49.045   22.285   31.041
H   50.774   21.647   30.861
H   49.809   22.121   29.471
H   49.208   25.370   29.921
H   49.099   24.155   28.726
H   50.575   25.009   28.768

