%nproc=24
%mem=50gb
#p ZINDO=(nstates=5)

step_451_chromophore_19 ZINDO

0 1
Mg   25.690   50.409   26.605
C   23.829   51.343   29.447
C   28.281   49.384   28.730
C   27.680   49.971   23.857
C   23.184   51.743   24.608
N   26.013   50.306   28.794
C   25.056   50.759   29.789
C   25.607   50.505   31.167
C   26.964   49.669   30.946
C   27.100   49.779   29.378
C   28.263   50.149   31.730
C   24.664   49.790   32.101
C   25.141   49.464   33.595
C   24.372   50.056   34.820
O   23.693   51.010   34.781
O   24.754   49.455   36.015
N   27.668   49.758   26.317
C   28.518   49.296   27.345
C   29.811   48.851   26.677
C   29.691   49.129   25.267
C   28.270   49.588   25.065
C   30.936   48.300   27.492
C   30.765   48.994   24.194
O   30.537   49.309   23.052
C   32.116   48.551   24.592
N   25.592   51.092   24.481
C   26.502   50.639   23.540
C   25.939   50.756   22.100
C   24.515   51.292   22.343
C   24.399   51.437   23.903
C   26.787   51.691   21.197
C   23.480   50.385   21.808
C   22.133   51.069   21.479
N   23.844   51.294   26.891
C   22.938   51.754   25.964
C   21.729   52.042   26.710
C   22.018   51.948   28.051
C   23.309   51.424   28.098
C   20.464   52.520   25.971
C   21.508   52.278   29.346
O   20.446   52.765   29.642
C   22.710   51.913   30.251
C   23.128   53.155   30.930
O   23.567   54.139   30.334
O   22.868   53.122   32.319
C   23.138   54.343   33.059
C   24.029   49.961   37.190
C   24.643   49.518   38.502
C   25.769   49.748   39.208
C   26.990   50.510   38.734
C   25.894   49.117   40.591
C   26.381   47.664   40.597
C   25.504   46.620   41.294
C   26.036   45.772   42.481
C   26.490   44.418   41.941
C   25.103   45.604   43.712
C   25.781   46.126   45.054
C   25.129   47.443   45.619
C   26.186   48.606   45.762
C   25.889   49.511   47.036
C   26.609   49.293   44.451
C   27.994   48.918   43.924
C   29.120   49.851   44.233
C   29.117   51.019   43.295
C   29.824   50.654   41.945
C   29.868   52.257   43.876
H   29.063   49.058   29.418
H   28.172   49.878   22.886
H   22.460   52.191   23.924
H   25.958   51.408   31.666
H   26.795   48.630   31.228
H   28.906   50.654   31.009
H   28.731   49.288   32.206
H   27.998   50.780   32.578
H   24.538   48.798   31.667
H   23.735   50.351   32.201
H   26.127   49.886   33.790
H   25.201   48.385   33.737
H   31.101   47.254   27.234
H   30.736   48.218   28.561
H   31.844   48.881   27.334
H   31.925   47.551   24.980
H   32.558   49.374   25.155
H   32.649   48.337   23.666
H   25.865   49.727   21.747
H   24.443   52.305   21.947
H   27.594   52.171   21.750
H   26.186   52.506   20.795
H   27.075   51.089   20.334
H   23.206   49.704   22.614
H   23.726   49.903   20.862
H   22.369   52.124   21.343
H   21.453   51.002   22.328
H   21.675   50.750   20.542
H   20.111   51.907   25.141
H   20.572   53.578   25.735
H   19.649   52.433   26.690
H   22.306   51.358   31.098
H   22.186   54.688   33.464
H   23.590   55.189   32.542
H   23.816   54.052   33.861
H   22.948   49.835   37.134
H   24.007   51.050   37.145
H   23.902   48.921   39.032
H   27.897   50.098   39.177
H   26.951   51.569   38.987
H   27.101   50.446   37.651
H   24.903   49.312   41.002
H   26.593   49.725   41.166
H   27.356   47.682   41.084
H   26.698   47.408   39.587
H   25.322   45.900   40.496
H   24.663   47.199   41.675
H   26.919   46.280   42.869
H   25.646   43.813   41.608
H   26.963   43.938   42.798
H   27.211   44.543   41.133
H   24.788   44.567   43.827
H   24.242   46.259   43.578
H   26.842   46.374   45.022
H   25.735   45.384   45.851
H   24.832   47.337   46.663
H   24.262   47.715   45.018
H   27.104   48.182   46.169
H   26.242   49.056   47.961
H   24.810   49.653   47.098
H   26.316   50.504   46.896
H   26.624   50.361   44.670
H   25.852   49.040   43.708
H   27.885   48.892   42.840
H   28.342   47.921   44.194
H   29.940   49.162   44.033
H   29.104   50.156   45.279
H   28.094   51.359   43.132
H   29.257   51.285   41.262
H   29.707   49.599   41.694
H   30.890   50.876   42.000
H   30.247   51.945   44.850
H   29.108   53.028   44.002
H   30.673   52.666   43.266

