%nproc=24
%mem=75GB
#p PBE1PBE/Def2SVP td=(nstates=5)

step_351_chromophore_6 TDDFT with PBE1PBE functional

0 1
Mg   16.616   -2.149   27.835
C   15.825   0.070   30.559
C   18.539   -3.995   30.088
C   17.719   -4.025   25.316
C   15.125   0.082   25.776
N   17.150   -1.882   30.079
C   16.684   -1.002   30.972
C   17.260   -1.219   32.391
C   18.326   -2.401   32.124
C   18.007   -2.772   30.667
C   19.838   -2.083   32.406
C   16.182   -1.503   33.470
C   16.210   -0.725   34.793
C   17.560   -0.398   35.409
O   18.045   0.743   35.442
O   18.182   -1.590   35.857
N   17.857   -3.801   27.702
C   18.503   -4.443   28.751
C   19.145   -5.626   28.274
C   18.803   -5.719   26.957
C   18.118   -4.502   26.565
C   20.108   -6.529   29.041
C   19.144   -6.712   25.917
O   18.781   -6.672   24.758
C   19.959   -7.808   26.246
N   16.645   -1.891   25.871
C   17.112   -2.794   24.978
C   16.930   -2.344   23.550
C   15.808   -1.247   23.718
C   15.823   -0.989   25.230
C   18.130   -1.919   22.740
C   14.484   -1.546   23.016
C   14.384   -0.877   21.659
N   15.688   -0.274   28.011
C   15.026   0.439   27.093
C   14.328   1.532   27.726
C   14.666   1.414   29.114
C   15.508   0.309   29.210
C   13.470   2.467   26.855
C   14.459   2.057   30.402
O   13.875   3.113   30.692
C   15.231   1.101   31.452
C   16.091   2.084   32.253
O   17.274   2.274   31.961
O   15.308   2.818   33.128
C   16.069   3.940   33.671
C   19.462   -1.334   36.564
C   20.278   -2.663   36.842
C   20.810   -3.099   38.042
C   20.668   -2.391   39.420
C   21.828   -4.247   37.957
C   21.179   -5.595   38.324
C   21.484   -6.044   39.769
C   22.293   -7.327   39.976
C   21.521   -8.515   39.321
C   22.732   -7.540   41.402
C   24.260   -7.675   41.706
C   24.430   -8.661   42.997
C   25.415   -9.836   42.859
C   24.983   -11.152   43.614
C   26.844   -9.389   43.255
C   27.878   -10.416   42.733
C   28.825   -9.932   41.544
C   30.113   -10.757   41.539
C   29.956   -12.131   40.740
C   31.250   -9.888   40.977
H   19.130   -4.598   30.781
H   18.014   -4.539   24.398
H   14.506   0.588   25.032
H   17.843   -0.310   32.536
H   18.041   -3.305   32.662
H   19.850   -1.088   32.850
H   20.408   -2.300   31.502
H   20.199   -2.869   33.070
H   16.190   -2.580   33.640
H   15.226   -1.233   33.022
H   15.674   -1.355   35.503
H   15.648   0.208   34.758
H   20.415   -6.196   30.033
H   21.038   -6.506   28.474
H   19.731   -7.549   29.128
H   19.510   -8.313   27.102
H   20.968   -7.459   26.462
H   20.115   -8.548   25.461
H   16.549   -3.207   23.002
H   16.191   -0.307   23.321
H   18.442   -0.916   23.030
H   17.911   -1.954   21.673
H   19.024   -2.511   22.937
H   13.789   -1.067   23.706
H   14.255   -2.607   22.914
H   13.734   -0.046   21.932
H   13.885   -1.542   20.954
H   15.332   -0.557   21.226
H   12.784   1.890   26.235
H   14.157   2.946   26.157
H   12.974   3.232   27.453
H   14.501   0.693   32.150
H   16.235   4.697   32.905
H   17.069   3.729   34.050
H   15.582   4.323   34.568
H   19.314   -0.781   37.492
H   20.202   -0.848   35.929
H   20.486   -3.264   35.957
H   19.937   -1.582   39.425
H   21.612   -1.919   39.695
H   20.385   -3.231   40.054
H   22.641   -3.970   38.628
H   22.156   -4.289   36.918
H   21.564   -6.343   37.630
H   20.097   -5.531   38.440
H   20.526   -6.305   40.220
H   22.028   -5.319   40.375
H   23.148   -7.266   39.303
H   21.947   -8.770   38.350
H   20.509   -8.220   39.042
H   21.526   -9.339   40.034
H   22.099   -8.283   41.887
H   22.437   -6.651   41.959
H   24.562   -6.673   42.011
H   24.792   -8.088   40.849
H   23.504   -9.061   43.409
H   24.921   -8.013   43.723
H   25.441   -10.134   41.811
H   23.978   -11.078   44.031
H   25.680   -11.304   44.437
H   24.957   -11.984   42.911
H   26.916   -9.226   44.330
H   27.196   -8.448   42.834
H   27.332   -11.320   42.462
H   28.512   -10.650   43.588
H   28.895   -8.853   41.681
H   28.233   -10.011   40.633
H   30.378   -11.078   42.546
H   30.314   -12.900   41.425
H   30.683   -12.314   39.949
H   28.917   -12.225   40.425
H   31.041   -8.822   40.890
H   31.490   -10.318   40.005
H   32.125   -10.117   41.586

