%nproc=24
%mem=50gb
#p ZINDO=(nstates=5)

step_901_chromophore_19 ZINDO

0 1
Mg   25.705   51.110   26.277
C   23.575   52.000   28.973
C   27.826   49.847   28.548
C   27.718   50.315   23.700
C   23.414   52.380   24.075
N   25.561   50.742   28.538
C   24.692   51.301   29.436
C   25.147   51.026   30.882
C   26.561   50.377   30.709
C   26.648   50.291   29.138
C   27.812   51.074   31.516
C   24.065   50.172   31.702
C   23.366   50.813   32.928
C   24.168   51.591   33.984
O   24.113   52.773   34.264
O   24.972   50.769   34.736
N   27.486   50.295   26.150
C   28.238   49.866   27.172
C   29.506   49.380   26.625
C   29.490   49.660   25.282
C   28.186   50.129   24.975
C   30.648   48.845   27.519
C   30.651   49.487   24.350
O   30.581   49.891   23.189
C   31.946   48.837   24.771
N   25.613   51.365   24.201
C   26.535   50.910   23.308
C   26.042   51.099   21.872
C   24.545   51.348   22.102
C   24.533   51.735   23.585
C   26.794   52.331   21.064
C   23.633   50.106   21.805
C   22.421   50.346   20.929
N   23.916   52.108   26.462
C   23.077   52.519   25.422
C   21.882   53.128   26.114
C   22.063   52.899   27.480
C   23.273   52.257   27.621
C   20.712   53.772   25.411
C   21.506   53.180   28.725
O   20.531   53.834   28.999
C   22.453   52.549   29.828
C   22.864   53.665   30.639
O   23.649   54.525   30.316
O   22.061   53.601   31.719
C   21.915   54.765   32.657
C   25.682   51.208   35.933
C   25.618   50.157   37.070
C   25.769   50.315   38.424
C   26.285   51.602   39.023
C   25.440   49.258   39.439
C   26.628   48.579   40.114
C   26.571   47.042   39.850
C   27.146   46.174   41.030
C   27.818   44.861   40.569
C   26.128   45.981   42.138
C   26.657   45.831   43.585
C   26.310   47.074   44.506
C   27.414   47.406   45.562
C   26.843   47.679   46.973
C   28.333   48.562   45.106
C   27.852   50.001   45.240
C   28.150   50.937   44.015
C   28.582   52.389   44.368
C   27.443   53.106   45.208
C   29.028   53.278   43.144
H   28.543   49.427   29.256
H   28.343   49.953   22.880
H   22.792   52.670   23.226
H   25.202   52.027   31.311
H   26.544   49.333   31.023
H   28.383   51.750   30.879
H   28.475   50.272   31.841
H   27.506   51.564   32.440
H   24.494   49.201   31.950
H   23.323   50.006   30.921
H   22.770   50.026   33.391
H   22.595   51.520   32.623
H   31.548   49.450   27.400
H   30.793   47.785   27.309
H   30.388   49.006   28.565
H   32.573   49.466   25.403
H   32.442   48.651   23.819
H   31.609   47.966   25.333
H   26.218   50.169   21.331
H   24.313   52.232   21.508
H   27.776   52.677   21.387
H   26.237   53.265   20.992
H   26.976   51.928   20.068
H   23.227   49.684   22.724
H   24.137   49.275   21.312
H   22.531   49.778   20.005
H   22.283   51.425   20.855
H   21.617   49.748   21.358
H   21.013   54.342   24.532
H   20.111   54.380   26.087
H   20.009   53.028   25.039
H   21.954   51.756   30.385
H   22.638   54.697   33.470
H   20.889   54.830   33.016
H   22.170   55.719   32.195
H   25.223   52.111   36.337
H   26.726   51.441   35.725
H   25.390   49.157   36.700
H   26.584   52.331   38.270
H   27.127   51.376   39.677
H   25.606   52.182   39.647
H   24.698   48.620   38.960
H   24.938   49.855   40.200
H   26.632   48.613   41.203
H   27.554   48.964   39.687
H   27.186   46.750   38.998
H   25.548   46.709   39.677
H   27.851   46.854   41.507
H   27.096   44.230   40.051
H   28.102   44.187   41.377
H   28.720   45.043   39.984
H   25.567   45.084   41.875
H   25.376   46.754   42.301
H   27.713   45.562   43.594
H   26.198   44.932   43.996
H   25.415   46.869   45.094
H   26.087   47.914   43.848
H   27.912   46.437   45.557
H   27.543   48.181   47.640
H   26.624   46.723   47.450
H   25.880   48.187   47.035
H   28.466   48.436   44.032
H   29.289   48.457   45.621
H   28.408   50.404   46.087
H   26.780   49.866   45.382
H   27.261   51.001   43.388
H   28.968   50.641   43.357
H   29.399   52.317   45.085
H   26.994   53.952   44.688
H   27.793   53.529   46.149
H   26.582   52.450   45.338
H   30.109   53.416   43.180
H   28.608   54.282   43.213
H   28.675   52.934   42.172

