%nproc=24
%mem=75GB
#p blyp/Def2SVP td=(nstates=5)

step_1801_chromophore_12 TDDFT with blyp functional

0 1
Mg   47.926   15.475   27.890
C   45.849   15.008   30.731
C   49.836   17.576   29.896
C   49.930   15.883   25.359
C   45.655   13.544   26.008
N   47.886   16.088   30.142
C   46.930   15.794   31.044
C   47.332   16.378   32.392
C   48.480   17.472   32.030
C   48.798   16.967   30.627
C   47.989   18.941   31.925
C   47.684   15.300   33.444
C   47.421   15.632   34.958
C   48.649   15.501   35.841
O   49.572   14.686   35.766
O   48.580   16.468   36.779
N   49.617   16.622   27.637
C   50.241   17.378   28.555
C   51.299   18.137   27.892
C   51.513   17.491   26.592
C   50.406   16.592   26.489
C   52.094   19.266   28.581
C   52.628   17.701   25.461
O   52.503   17.374   24.264
C   53.795   18.524   25.888
N   47.699   14.924   25.867
C   48.703   15.178   25.049
C   48.521   14.310   23.761
C   47.106   13.713   23.915
C   46.738   14.074   25.367
C   48.746   15.229   22.509
C   46.870   12.277   23.341
C   47.081   10.988   24.256
N   46.138   14.348   28.285
C   45.242   13.681   27.364
C   44.083   13.177   28.100
C   44.352   13.580   29.436
C   45.488   14.418   29.460
C   42.960   12.253   27.638
C   43.883   13.541   30.812
O   42.879   13.007   31.240
C   44.750   14.546   31.609
C   43.804   15.662   31.994
O   43.120   16.374   31.224
O   43.668   15.830   33.341
C   42.729   16.819   33.834
C   49.676   16.348   37.778
C   49.845   17.554   38.591
C   50.895   18.074   39.193
C   52.226   17.455   39.062
C   50.898   19.384   39.937
C   51.905   20.421   39.409
C   51.403   21.797   39.786
C   52.282   22.999   39.405
C   52.206   24.077   40.531
C   51.970   23.606   38.026
C   53.291   23.858   37.236
C   52.965   24.856   36.107
C   53.286   24.398   34.656
C   54.539   25.167   34.115
C   52.113   24.459   33.670
C   52.233   23.540   32.425
C   52.045   24.206   31.004
C   50.957   23.565   30.099
C   51.324   23.840   28.591
C   49.588   24.114   30.480
H   50.284   18.418   30.428
H   50.615   15.984   24.515
H   45.049   12.926   25.342
H   46.517   16.958   32.824
H   49.395   17.350   32.611
H   47.065   19.111   32.478
H   47.768   19.214   30.893
H   48.789   19.614   32.233
H   48.767   15.354   33.333
H   47.382   14.301   33.130
H   46.672   15.077   35.523
H   47.030   16.639   35.108
H   51.610   19.505   29.528
H   52.033   20.055   27.832
H   53.134   18.953   28.673
H   54.637   18.594   25.200
H   54.246   18.122   26.795
H   53.410   19.540   25.985
H   49.366   13.627   23.856
H   46.443   14.353   23.332
H   48.056   14.735   21.825
H   49.666   14.923   22.010
H   48.420   16.258   22.657
H   47.593   12.183   22.531
H   45.915   12.376   22.825
H   47.614   10.153   23.800
H   46.159   10.465   24.510
H   47.484   11.296   25.220
H   41.980   12.582   27.982
H   43.093   11.261   28.070
H   42.933   12.212   26.549
H   45.089   14.131   32.558
H   42.112   17.298   33.074
H   43.286   17.637   34.292
H   42.050   16.312   34.520
H   50.618   16.189   37.252
H   49.418   15.640   38.565
H   48.885   18.070   38.635
H   52.787   17.580   39.988
H   52.704   18.045   38.280
H   52.279   16.389   38.842
H   51.060   19.038   40.958
H   49.872   19.734   40.047
H   51.929   20.411   38.319
H   52.935   20.492   39.757
H   51.326   21.746   40.873
H   50.481   22.041   39.258
H   53.317   22.661   39.356
H   53.197   24.145   40.981
H   51.527   23.808   41.340
H   51.832   25.044   40.196
H   51.403   24.519   38.205
H   51.444   22.895   37.389
H   53.698   22.940   36.814
H   54.093   24.317   37.815
H   53.516   25.760   36.367
H   51.913   25.141   36.084
H   53.506   23.331   34.624
H   55.143   24.559   33.441
H   55.247   25.400   34.910
H   54.161   26.092   33.680
H   51.907   25.487   33.375
H   51.229   24.116   34.208
H   51.405   22.832   32.398
H   53.207   23.051   32.441
H   53.002   23.957   30.547
H   51.927   25.289   31.030
H   50.966   22.497   30.313
H   52.039   24.592   28.257
H   50.379   23.965   28.062
H   51.735   22.902   28.217
H   49.054   24.530   29.626
H   49.654   24.895   31.237
H   48.861   23.354   30.766

