%nproc=24
%mem=75GB
#p cam-b3lyp/Def2SVP td=(nstates=5)

step_201_chromophore_15 TDDFT with cam-b3lyp functional

0 1
Mg   46.426   34.347   28.180
C   44.870   32.301   30.455
C   46.429   36.931   30.303
C   47.353   36.525   25.588
C   46.082   31.913   25.718
N   45.799   34.492   30.143
C   45.331   33.538   30.980
C   45.256   33.958   32.440
C   45.604   35.536   32.338
C   45.892   35.700   30.821
C   44.665   36.556   32.908
C   46.391   33.253   33.342
C   46.218   33.350   34.860
C   45.238   34.275   35.566
O   44.049   34.148   35.600
O   45.937   35.272   36.175
N   47.062   36.387   28.094
C   46.945   37.278   29.094
C   47.378   38.590   28.691
C   47.752   38.542   27.304
C   47.394   37.086   26.931
C   47.384   39.880   29.561
C   48.391   39.599   26.335
O   48.831   39.304   25.233
C   48.711   41.012   26.760
N   46.833   34.161   26.045
C   47.020   35.249   25.181
C   47.100   34.909   23.742
C   46.846   33.355   23.806
C   46.529   33.103   25.342
C   46.246   35.722   22.782
C   47.980   32.475   23.249
C   49.241   32.381   24.175
N   45.680   32.460   28.060
C   45.567   31.588   26.950
C   44.898   30.347   27.403
C   44.492   30.630   28.736
C   45.086   31.886   29.111
C   44.629   29.078   26.519
C   43.842   30.094   29.836
O   43.268   29.072   30.029
C   43.876   31.286   30.947
C   44.096   30.913   32.429
O   45.008   30.275   32.870
O   42.962   31.347   33.128
C   43.039   31.083   34.579
C   45.132   36.199   36.989
C   45.984   37.252   37.678
C   45.481   38.186   38.562
C   44.100   38.480   38.911
C   46.455   39.295   38.968
C   46.925   40.133   37.751
C   48.330   40.635   37.806
C   48.514   42.169   37.652
C   49.986   42.480   37.387
C   47.870   42.903   38.855
C   46.697   43.762   38.342
C   46.340   44.889   39.226
C   46.040   46.261   38.464
C   47.306   47.131   38.377
C   44.904   47.078   39.078
C   43.511   46.645   38.510
C   42.682   46.368   39.763
C   41.137   46.555   39.542
C   40.520   47.440   40.612
C   40.341   45.208   39.551
H   46.532   37.715   31.057
H   47.462   37.323   24.851
H   45.888   31.186   24.927
H   44.282   33.743   32.879
H   46.535   35.703   32.879
H   44.408   37.362   32.219
H   45.004   36.917   33.879
H   43.779   35.944   33.075
H   47.327   33.779   33.156
H   46.489   32.206   33.057
H   47.234   33.639   35.131
H   45.858   32.352   35.110
H   48.371   40.323   29.425
H   47.188   39.654   30.609
H   46.690   40.647   29.218
H   47.811   41.318   27.294
H   48.838   41.671   25.902
H   49.673   41.001   27.273
H   48.077   34.941   23.260
H   45.908   33.066   23.332
H   46.814   36.541   22.340
H   45.291   36.026   23.211
H   46.092   35.002   21.979
H   48.253   32.906   22.285
H   47.609   31.462   23.097
H   50.154   32.792   23.744
H   49.556   31.387   24.493
H   49.056   32.925   25.101
H   45.604   28.820   26.104
H   44.014   29.452   25.700
H   44.319   28.234   27.135
H   42.962   31.860   30.793
H   42.374   31.824   35.024
H   44.030   31.258   34.997
H   42.782   30.094   34.959
H   44.762   35.669   37.866
H   44.444   36.673   36.289
H   47.060   37.121   37.564
H   43.336   38.059   38.257
H   44.022   39.565   38.834
H   44.021   38.106   39.932
H   47.265   38.812   39.515
H   46.043   39.966   39.722
H   46.263   40.975   37.550
H   46.754   39.479   36.896
H   49.053   40.277   37.073
H   48.662   40.273   38.779
H   48.032   42.472   36.723
H   50.103   42.896   36.386
H   50.801   41.756   37.377
H   50.372   43.281   38.016
H   48.629   43.529   39.325
H   47.555   42.270   39.684
H   45.776   43.224   38.116
H   46.917   44.169   37.356
H   47.008   45.112   40.058
H   45.403   44.496   39.622
H   45.902   45.972   37.422
H   47.312   47.832   39.212
H   47.338   47.786   37.506
H   48.210   46.529   38.469
H   45.021   48.117   38.771
H   45.091   46.885   40.134
H   43.663   45.762   37.889
H   43.175   47.485   37.901
H   42.941   47.059   40.565
H   42.927   45.344   40.046
H   41.106   47.043   38.568
H   41.133   47.556   41.506
H   39.585   46.987   40.943
H   40.306   48.421   40.190
H   40.720   44.527   38.789
H   39.288   45.425   39.370
H   40.430   44.677   40.499

