%nproc=24
%mem=75GB
#p wB97XD/Def2SVP td=(nstates=5)

step_1651_chromophore_17 TDDFT with wB97XD functional

0 1
Mg   29.758   58.922   41.198
C   26.662   57.237   40.273
C   31.520   56.218   39.898
C   32.371   60.754   41.538
C   27.641   61.806   41.744
N   29.127   57.071   40.101
C   27.827   56.574   39.885
C   27.968   55.178   39.240
C   29.482   54.797   39.303
C   30.128   56.112   39.782
C   29.713   53.602   40.245
C   27.408   55.266   37.708
C   26.514   54.150   37.234
C   26.039   54.117   35.788
O   24.937   53.670   35.340
O   26.954   54.652   34.916
N   31.640   58.531   40.814
C   32.200   57.337   40.410
C   33.619   57.503   40.358
C   33.954   58.751   40.897
C   32.620   59.407   41.084
C   34.516   56.239   40.046
C   35.365   59.287   41.232
O   36.366   58.694   40.863
C   35.610   60.489   42.068
N   29.936   61.027   41.584
C   31.173   61.460   41.738
C   31.187   62.942   42.218
C   29.736   63.341   42.257
C   29.033   61.948   41.882
C   32.047   63.360   43.387
C   29.254   64.449   41.376
C   29.413   65.827   42.027
N   27.603   59.434   41.197
C   26.939   60.589   41.485
C   25.477   60.372   41.535
C   25.329   59.061   41.028
C   26.659   58.538   40.834
C   24.424   61.115   42.090
C   24.337   58.025   40.723
O   23.119   58.012   40.760
C   25.232   56.840   40.102
C   24.966   55.620   40.812
O   25.215   55.392   41.991
O   24.198   54.825   40.006
C   24.293   53.403   40.499
C   26.601   54.419   33.468
C   27.277   55.533   32.631
C   28.039   55.473   31.491
C   28.420   54.197   30.753
C   28.384   56.777   30.757
C   29.744   57.438   30.932
C   30.704   57.419   29.669
C   31.905   56.432   29.746
C   31.738   55.327   28.663
C   33.323   57.102   29.757
C   34.471   56.466   30.707
C   35.771   55.975   29.986
C   35.822   54.482   29.957
C   36.372   53.911   31.341
C   36.721   53.894   28.768
C   35.906   53.414   27.586
C   36.511   53.645   26.178
C   36.087   54.958   25.478
C   34.975   54.612   24.451
C   37.283   55.841   24.895
H   32.104   55.324   39.670
H   33.291   61.313   41.720
H   27.062   62.679   42.053
H   27.317   54.549   39.846
H   29.913   54.588   38.324
H   28.828   53.277   40.793
H   30.389   53.901   41.045
H   30.148   52.790   39.663
H   28.280   55.319   37.056
H   26.860   56.207   37.650
H   25.554   54.281   37.734
H   26.848   53.174   37.587
H   35.508   56.443   40.449
H   34.592   56.099   38.968
H   34.158   55.324   40.517
H   35.620   61.408   41.483
H   36.538   60.316   42.613
H   34.843   60.443   42.841
H   31.629   63.359   41.312
H   29.439   63.586   43.277
H   32.989   63.753   43.005
H   32.315   62.435   43.897
H   31.551   64.068   44.052
H   28.206   64.313   41.110
H   29.832   64.542   40.457
H   29.886   65.735   43.004
H   28.435   66.287   42.170
H   29.982   66.454   41.341
H   24.159   62.043   41.583
H   24.589   61.493   43.099
H   23.455   60.621   42.037
H   25.005   56.587   39.067
H   23.442   53.335   41.178
H   25.229   53.203   41.021
H   24.183   52.717   39.660
H   25.564   54.607   33.189
H   26.760   53.364   33.244
H   27.028   56.527   33.003
H   27.908   54.115   29.794
H   28.049   53.372   31.360
H   29.497   54.153   30.592
H   27.679   57.542   31.082
H   28.210   56.604   29.695
H   30.135   56.881   31.784
H   29.775   58.427   31.390
H   31.001   58.453   29.494
H   30.114   57.211   28.776
H   31.921   55.845   30.664
H   30.838   55.377   28.049
H   31.685   54.378   29.197
H   32.596   55.424   27.998
H   33.153   58.097   30.170
H   33.615   57.097   28.707
H   34.020   55.594   31.180
H   34.655   57.239   31.453
H   36.635   56.381   30.512
H   35.823   56.344   28.962
H   34.831   54.074   29.759
H   35.668   53.171   31.721
H   36.462   54.738   32.046
H   37.359   53.457   31.259
H   37.313   53.034   29.082
H   37.439   54.640   28.427
H   34.890   53.808   27.579
H   35.762   52.356   27.807
H   36.261   52.727   25.647
H   37.599   53.663   26.239
H   35.729   55.646   26.244
H   35.468   54.420   23.498
H   34.317   55.473   24.330
H   34.426   53.740   24.805
H   36.960   56.340   23.981
H   38.228   55.315   24.764
H   37.458   56.706   25.536

