%nproc=24
%mem=75GB
#p blyp/Def2SVP td=(nstates=5)

step_1251_chromophore_26 TDDFT with blyp functional

0 1
Mg   -8.722   18.447   42.451
C   -5.276   17.869   42.772
C   -7.988   21.816   41.880
C   -11.892   18.920   41.977
C   -9.182   15.005   42.993
N   -6.854   19.633   42.146
C   -5.548   19.176   42.411
C   -4.578   20.310   42.042
C   -5.474   21.555   42.050
C   -6.921   20.999   42.037
C   -5.272   22.417   43.309
C   -3.574   20.135   40.892
C   -4.052   19.308   39.698
C   -3.567   19.570   38.236
O   -2.531   19.232   37.730
O   -4.427   20.478   37.761
N   -9.760   20.077   41.838
C   -9.312   21.402   41.768
C   -10.440   22.289   41.402
C   -11.603   21.508   41.339
C   -11.096   20.122   41.721
C   -10.334   23.809   41.166
C   -13.085   22.004   41.110
O   -13.253   23.207   40.885
C   -14.281   21.068   40.858
N   -10.255   17.182   42.435
C   -11.515   17.634   42.336
C   -12.550   16.501   42.709
C   -11.598   15.267   42.978
C   -10.268   15.815   42.710
C   -13.527   16.761   43.866
C   -11.849   14.082   42.038
C   -12.141   12.778   42.712
N   -7.556   16.796   42.691
C   -7.867   15.498   42.997
C   -6.688   14.785   43.451
C   -5.627   15.687   43.276
C   -6.193   16.847   42.786
C   -6.618   13.401   43.968
C   -4.147   15.826   43.348
O   -3.251   15.008   43.581
C   -3.877   17.326   43.068
C   -3.018   17.967   44.131
O   -1.938   18.452   43.886
O   -3.664   17.983   45.388
C   -2.804   18.255   46.583
C   -4.131   20.983   36.419
C   -5.410   20.871   35.511
C   -5.748   19.899   34.693
C   -5.123   18.494   34.597
C   -6.821   20.175   33.611
C   -8.090   19.261   33.594
C   -8.971   19.543   32.341
C   -10.169   20.467   32.650
C   -11.503   19.614   32.623
C   -10.167   21.739   31.763
C   -9.738   23.026   32.525
C   -8.784   23.932   31.773
C   -9.473   24.888   30.785
C   -8.921   26.346   31.047
C   -9.444   24.526   29.250
C   -10.638   24.974   28.472
C   -11.024   23.793   27.392
C   -11.245   24.351   25.920
C   -12.773   24.276   25.581
C   -10.436   23.620   24.822
H   -7.771   22.885   41.840
H   -12.972   19.005   41.836
H   -9.280   14.034   43.483
H   -3.906   20.302   42.901
H   -5.490   22.135   41.127
H   -5.013   23.396   42.907
H   -4.332   22.058   43.726
H   -6.127   22.428   43.985
H   -2.649   19.684   41.251
H   -3.371   21.147   40.541
H   -5.141   19.337   39.689
H   -3.904   18.285   40.043
H   -11.206   24.464   41.160
H   -9.779   24.083   40.268
H   -9.766   24.203   42.008
H   -14.915   21.078   41.744
H   -14.132   20.032   40.554
H   -14.814   21.702   40.149
H   -13.242   16.349   41.880
H   -11.562   15.008   44.036
H   -12.983   17.311   44.634
H   -13.877   15.847   44.347
H   -14.331   17.374   43.460
H   -11.069   13.921   41.294
H   -12.645   14.410   41.370
H   -11.897   11.922   42.083
H   -13.225   12.762   42.828
H   -11.689   12.847   43.701
H   -6.021   13.334   44.878
H   -6.072   12.804   43.237
H   -7.627   13.004   44.081
H   -3.286   17.468   42.164
H   -2.567   17.497   47.330
H   -3.290   19.109   47.055
H   -1.775   18.485   46.306
H   -3.204   20.586   36.006
H   -3.976   22.044   36.616
H   -5.939   21.800   35.302
H   -5.154   18.080   33.589
H   -5.463   17.763   35.330
H   -4.064   18.504   34.853
H   -6.327   20.119   32.641
H   -7.200   21.167   33.858
H   -8.619   19.456   34.526
H   -7.713   18.238   33.563
H   -9.265   18.542   32.025
H   -8.273   20.007   31.644
H   -10.045   20.864   33.658
H   -12.170   19.883   31.804
H   -12.016   19.891   33.544
H   -11.289   18.555   32.768
H   -11.162   22.038   31.435
H   -9.575   21.679   30.850
H   -9.273   22.706   33.458
H   -10.680   23.515   32.771
H   -8.151   23.265   31.186
H   -8.155   24.381   32.541
H   -10.547   25.015   30.925
H   -8.659   26.575   32.079
H   -9.670   27.048   30.680
H   -7.990   26.394   30.482
H   -9.389   23.449   29.095
H   -8.571   24.913   28.724
H   -10.304   25.923   28.051
H   -11.545   25.020   29.076
H   -11.909   23.285   27.774
H   -10.221   23.060   27.308
H   -11.047   25.404   26.115
H   -12.827   24.412   24.501
H   -13.273   25.089   26.108
H   -13.197   23.286   25.748
H   -10.129   24.379   24.103
H   -11.022   22.944   24.200
H   -9.437   23.322   25.141

