%nproc=24
%mem=75GB
#p cam-b3lyp/Def2SVP td=(nstates=5)

step_601_chromophore_8 TDDFT with cam-b3lyp functional

0 1
Mg   44.589   3.080   47.762
C   42.327   5.703   47.016
C   41.909   0.933   47.563
C   46.785   0.639   47.646
C   47.137   5.420   47.109
N   42.431   3.286   47.325
C   41.731   4.452   47.108
C   40.215   4.257   46.909
C   40.128   2.765   47.582
C   41.537   2.292   47.475
C   39.403   2.782   48.919
C   39.742   4.223   45.416
C   38.665   5.155   45.001
C   39.045   6.052   43.837
O   39.722   7.058   43.936
O   38.459   5.616   42.663
N   44.421   1.078   47.626
C   43.218   0.368   47.623
C   43.514   -1.055   47.668
C   44.913   -1.224   47.804
C   45.424   0.175   47.754
C   42.427   -2.191   47.470
C   45.668   -2.530   47.979
O   45.069   -3.601   48.109
C   47.158   -2.648   47.992
N   46.648   3.044   47.258
C   47.339   1.891   47.460
C   48.872   2.127   47.326
C   48.965   3.579   46.971
C   47.510   4.063   47.100
C   49.734   1.889   48.595
C   49.459   3.806   45.522
C   50.841   4.218   45.481
N   44.798   5.219   47.395
C   45.868   5.993   47.112
C   45.468   7.448   46.908
C   44.062   7.370   46.901
C   43.688   5.972   47.202
C   46.332   8.662   46.620
C   42.877   8.138   46.743
O   42.628   9.314   46.538
C   41.685   7.088   46.874
C   40.820   7.534   47.968
O   41.141   7.749   49.153
O   39.499   7.570   47.558
C   38.593   7.995   48.718
C   38.718   6.354   41.436
C   39.906   5.754   40.656
C   40.506   6.368   39.588
C   40.003   7.747   39.002
C   41.677   5.699   38.880
C   41.551   4.350   38.113
C   42.430   3.254   38.659
C   42.973   2.357   37.561
C   43.190   0.885   37.975
C   44.216   3.008   36.843
C   44.331   2.621   35.275
C   44.125   3.824   34.358
C   45.248   4.043   33.314
C   46.459   4.724   33.986
C   44.713   4.680   32.056
C   44.481   3.741   30.881
C   43.330   4.130   29.996
C   43.801   3.825   28.513
C   42.642   3.627   27.579
C   44.633   5.021   28.028
H   40.988   0.351   47.635
H   47.671   0.001   47.687
H   48.069   5.962   46.935
H   39.674   4.976   47.524
H   39.441   2.134   47.019
H   40.098   2.486   49.706
H   38.588   2.059   48.948
H   39.077   3.762   49.266
H   39.352   3.238   45.161
H   40.592   4.500   44.794
H   38.311   5.713   45.868
H   37.884   4.498   44.619
H   42.221   -2.585   48.465
H   42.814   -3.017   46.872
H   41.529   -1.757   47.030
H   47.494   -1.830   48.630
H   47.582   -2.540   46.994
H   47.433   -3.659   48.294
H   49.267   1.562   46.482
H   49.595   4.146   47.656
H   49.384   0.986   49.095
H   49.722   2.815   49.170
H   50.736   1.691   48.213
H   48.919   4.614   45.027
H   49.454   2.922   44.884
H   51.189   4.732   46.376
H   51.051   4.970   44.721
H   51.464   3.342   45.298
H   45.872   9.435   47.235
H   46.130   8.980   45.597
H   47.355   8.500   46.961
H   41.028   7.112   46.004
H   37.581   7.881   48.328
H   38.769   8.985   49.139
H   38.674   7.314   49.566
H   38.768   7.434   41.575
H   37.882   6.195   40.755
H   40.276   4.810   41.058
H   40.806   8.454   39.210
H   39.073   8.028   39.497
H   39.879   7.559   37.935
H   42.511   5.697   39.583
H   41.885   6.385   38.059
H   41.815   4.424   37.058
H   40.547   3.938   38.206
H   41.800   2.586   39.246
H   43.159   3.683   39.347
H   42.096   2.357   36.915
H   42.315   0.244   37.868
H   43.575   0.806   38.992
H   43.979   0.462   37.352
H   45.175   2.687   37.249
H   44.112   4.085   36.969
H   43.538   1.930   34.990
H   45.335   2.229   35.118
H   43.951   4.685   35.004
H   43.147   3.615   33.926
H   45.636   3.071   33.008
H   46.300   5.073   35.006
H   46.634   5.691   33.514
H   47.373   4.181   33.744
H   45.440   5.472   31.875
H   43.798   5.198   32.343
H   44.268   2.731   31.231
H   45.449   3.684   30.383
H   43.043   5.154   30.233
H   42.478   3.464   30.136
H   44.353   2.885   28.536
H   42.118   4.581   27.529
H   41.921   2.942   28.025
H   43.027   3.217   26.645
H   44.180   5.584   27.212
H   45.528   4.574   27.597
H   44.887   5.599   28.916

