%nproc=24
%mem=75GB
#p cam-b3lyp/Def2SVP td=(nstates=5)

step_1151_chromophore_13 TDDFT with cam-b3lyp functional

0 1
Mg   45.709   24.742   28.352
C   46.773   26.827   30.918
C   45.204   22.218   30.613
C   45.671   22.465   25.817
C   46.816   27.163   26.083
N   46.037   24.593   30.459
C   46.329   25.575   31.363
C   46.127   25.175   32.825
C   45.836   23.608   32.687
C   45.783   23.370   31.147
C   46.775   22.670   33.408
C   44.989   25.918   33.565
C   45.499   26.506   34.950
C   44.554   26.506   36.186
O   43.344   26.778   36.248
O   45.362   26.238   37.330
N   45.261   22.699   28.203
C   45.055   21.845   29.269
C   44.648   20.500   28.750
C   45.002   20.561   27.324
C   45.405   21.957   27.051
C   44.223   19.337   29.690
C   45.007   19.385   26.351
O   45.434   19.484   25.163
C   44.524   18.010   26.955
N   46.210   24.781   26.205
C   46.025   23.723   25.349
C   46.436   24.151   23.899
C   46.315   25.632   24.015
C   46.457   25.934   25.543
C   47.782   23.725   23.264
C   45.078   26.387   23.389
C   43.807   26.425   24.323
N   46.662   26.649   28.401
C   46.955   27.554   27.450
C   47.410   28.803   28.068
C   47.375   28.579   29.380
C   46.859   27.275   29.571
C   47.981   30.025   27.378
C   47.493   29.238   30.710
O   47.809   30.362   31.022
C   47.262   28.055   31.704
C   48.528   27.675   32.497
O   49.569   27.123   32.114
O   48.328   27.981   33.802
C   49.204   27.458   34.835
C   44.666   26.444   38.619
C   44.649   25.222   39.455
C   44.351   25.201   40.801
C   43.779   26.386   41.471
C   44.094   23.803   41.418
C   42.704   23.111   41.140
C   42.286   22.348   42.433
C   40.774   22.129   42.478
C   40.356   20.998   41.564
C   39.949   23.404   42.209
C   38.686   23.523   43.165
C   38.948   24.395   44.426
C   38.767   23.504   45.755
C   37.241   23.309   46.030
C   39.642   24.151   46.865
C   41.146   23.743   46.908
C   42.044   24.853   46.284
C   43.484   24.563   46.679
C   44.012   25.313   47.919
C   44.490   24.842   45.586
H   45.062   21.430   31.355
H   45.841   21.786   24.979
H   47.026   27.942   25.347
H   47.104   25.362   33.271
H   44.848   23.338   33.060
H   47.343   22.042   32.722
H   46.103   22.028   33.978
H   47.355   23.214   34.153
H   44.130   25.256   33.666
H   44.578   26.668   32.889
H   45.841   27.530   34.798
H   46.424   25.974   35.172
H   43.250   18.974   29.358
H   44.374   19.571   30.744
H   44.885   18.474   29.617
H   45.152   17.678   27.782
H   44.538   17.259   26.165
H   43.502   17.995   27.334
H   45.638   23.835   23.228
H   47.144   26.191   23.582
H   48.299   23.118   24.007
H   48.415   24.531   22.894
H   47.505   23.090   22.423
H   44.885   25.954   22.407
H   45.316   27.439   23.236
H   43.653   25.437   24.755
H   42.832   26.645   23.888
H   43.826   27.165   25.124
H   47.800   29.991   26.303
H   49.066   30.119   27.416
H   47.660   30.986   27.779
H   46.539   28.496   32.390
H   48.810   27.633   35.836
H   50.160   27.975   34.750
H   49.587   26.452   34.662
H   43.641   26.808   38.685
H   45.152   27.266   39.145
H   44.966   24.320   38.931
H   43.142   26.073   42.298
H   43.203   27.021   40.798
H   44.596   26.995   41.858
H   44.432   23.941   42.445
H   44.812   23.173   40.892
H   43.017   22.354   40.421
H   42.038   23.754   40.564
H   42.583   22.945   43.295
H   42.865   21.464   42.701
H   40.545   21.814   43.496
H   40.062   20.191   42.235
H   41.149   20.610   40.924
H   39.508   21.271   40.937
H   39.543   23.379   41.198
H   40.654   24.229   42.303
H   38.255   22.533   43.318
H   37.977   23.888   42.423
H   38.246   25.228   44.468
H   39.944   24.836   44.471
H   39.055   22.477   45.530
H   36.944   23.681   47.011
H   37.028   22.241   46.017
H   36.632   23.835   45.294
H   39.162   23.716   47.742
H   39.440   25.222   46.867
H   41.315   22.780   46.426
H   41.415   23.567   47.950
H   41.801   25.862   46.617
H   41.861   24.687   45.223
H   43.698   23.548   47.013
H   44.192   24.727   48.820
H   43.267   25.975   48.361
H   44.863   25.979   47.776
H   44.130   25.640   44.938
H   44.669   24.004   44.912
H   45.460   25.230   45.900

