%nproc=24
%mem=75GB
#p cam-b3lyp/Def2SVP td=(nstates=5)

step_1601_chromophore_17 TDDFT with cam-b3lyp functional

0 1
Mg   29.426   58.225   40.468
C   26.420   56.584   39.841
C   31.084   55.384   39.985
C   32.199   60.021   40.683
C   27.509   61.171   41.094
N   28.790   56.302   39.849
C   27.545   55.828   39.543
C   27.689   54.459   38.924
C   29.061   53.993   39.446
C   29.730   55.296   39.849
C   29.106   52.950   40.625
C   27.416   54.452   37.384
C   26.148   53.746   36.859
C   25.621   54.112   35.452
O   24.405   54.228   35.218
O   26.635   54.250   34.493
N   31.442   57.709   40.293
C   31.911   56.476   40.108
C   33.417   56.538   40.029
C   33.736   57.884   40.231
C   32.445   58.642   40.400
C   34.312   55.355   39.576
C   35.190   58.400   40.147
O   36.117   57.560   40.012
C   35.411   59.806   40.235
N   29.833   60.343   40.729
C   31.081   60.791   40.846
C   31.092   62.333   41.016
C   29.589   62.646   41.188
C   28.883   61.321   40.976
C   32.016   62.837   42.272
C   28.924   63.858   40.505
C   28.179   64.863   41.339
N   27.360   58.794   40.706
C   26.750   60.001   40.974
C   25.267   59.839   41.055
C   25.129   58.523   40.598
C   26.371   57.955   40.358
C   24.256   60.850   41.449
C   24.146   57.524   40.253
O   22.935   57.512   40.326
C   24.927   56.263   39.729
C   24.410   55.145   40.495
O   24.565   54.993   41.692
O   23.784   54.252   39.696
C   23.817   52.847   40.069
C   26.217   54.453   33.115
C   26.942   55.674   32.616
C   27.142   56.071   31.399
C   26.580   55.298   30.185
C   28.141   57.181   31.000
C   29.526   57.208   31.514
C   30.548   57.375   30.429
C   31.020   56.089   29.677
C   30.479   55.972   28.286
C   32.576   56.068   29.533
C   33.322   55.308   30.661
C   34.896   55.426   30.283
C   35.560   54.045   30.398
C   35.605   53.521   31.807
C   36.953   54.062   29.845
C   37.169   53.157   28.576
C   37.647   53.879   27.273
C   36.548   54.387   26.371
C   36.311   53.775   25.027
C   36.796   55.851   26.185
H   31.577   54.448   39.715
H   33.004   60.751   40.793
H   26.907   62.069   41.247
H   27.034   53.718   39.382
H   29.686   53.707   38.601
H   28.374   52.145   40.574
H   29.137   53.576   41.517
H   30.066   52.435   40.578
H   28.237   53.874   36.962
H   27.388   55.435   36.912
H   25.374   53.860   37.617
H   26.380   52.681   36.841
H   35.093   55.670   38.884
H   33.670   54.564   39.188
H   34.757   54.851   40.434
H   34.758   60.313   39.525
H   36.448   59.929   39.922
H   35.331   60.065   41.291
H   31.484   62.680   40.059
H   29.502   62.773   42.267
H   32.704   62.005   42.428
H   31.448   63.155   43.146
H   32.653   63.647   41.918
H   28.312   63.358   39.754
H   29.667   64.409   39.929
H   28.344   64.772   42.412
H   27.143   64.572   41.163
H   28.407   65.876   41.009
H   24.573   61.472   42.286
H   23.221   60.511   41.497
H   24.369   61.651   40.719
H   24.582   56.066   38.714
H   24.465   52.706   40.934
H   24.155   52.174   39.281
H   22.821   52.634   40.456
H   25.161   54.675   32.961
H   26.455   53.523   32.597
H   27.455   56.293   33.352
H   27.353   54.617   29.829
H   26.331   56.027   29.414
H   25.688   54.729   30.445
H   27.657   58.089   31.360
H   28.249   57.132   29.916
H   29.761   56.305   32.079
H   29.635   57.994   32.261
H   31.438   57.815   30.878
H   30.410   58.180   29.708
H   30.751   55.179   30.214
H   30.279   54.916   28.106
H   31.178   56.252   27.498
H   29.530   56.494   28.158
H   32.970   57.084   29.549
H   32.879   55.501   28.653
H   32.993   54.270   30.628
H   33.102   55.806   31.605
H   35.350   56.136   30.974
H   34.970   55.996   29.357
H   34.906   53.392   29.820
H   34.703   52.921   31.931
H   35.672   54.321   32.544
H   36.454   52.842   31.885
H   37.648   53.745   30.623
H   37.281   55.092   29.701
H   36.273   52.620   28.263
H   37.795   52.306   28.846
H   38.172   53.135   26.673
H   38.351   54.675   27.514
H   35.614   54.334   26.931
H   36.756   54.343   24.211
H   35.241   53.835   24.828
H   36.650   52.739   25.026
H   35.954   56.271   25.633
H   37.770   56.037   25.733
H   36.675   56.424   27.104

