%nproc=24
%mem=75GB
#p wB97XD/Def2SVP td=(nstates=5)

step_1451_chromophore_23 TDDFT with wB97XD functional

0 1
Mg   -9.097   40.777   42.197
C   -8.324   37.526   41.407
C   -6.374   41.820   40.415
C   -10.140   44.079   42.448
C   -12.183   39.815   43.293
N   -7.657   39.703   40.963
C   -7.503   38.423   40.705
C   -6.275   38.106   39.833
C   -5.645   39.492   39.593
C   -6.561   40.423   40.418
C   -4.157   39.649   39.818
C   -6.477   37.203   38.592
C   -5.522   36.033   38.388
C   -4.538   36.180   37.184
O   -3.596   36.919   37.005
O   -5.087   35.318   36.214
N   -8.298   42.677   41.615
C   -7.099   42.867   41.017
C   -6.930   44.251   40.786
C   -7.877   44.921   41.566
C   -8.822   43.886   41.897
C   -5.677   44.824   40.166
C   -7.913   46.474   41.801
O   -7.193   47.242   41.218
C   -8.817   47.032   42.741
N   -10.987   41.794   42.568
C   -11.118   43.132   42.744
C   -12.459   43.504   43.428
C   -13.144   42.163   43.531
C   -12.055   41.184   43.064
C   -12.438   44.277   44.781
C   -14.513   41.935   42.778
C   -15.622   41.373   43.600
N   -10.074   39.022   42.320
C   -11.304   38.740   42.872
C   -11.476   37.307   43.047
C   -10.267   36.823   42.565
C   -9.545   37.865   42.063
C   -12.715   36.621   43.648
C   -9.515   35.625   42.339
O   -9.723   34.490   42.739
C   -8.251   36.004   41.432
C   -6.918   35.584   41.948
O   -6.298   36.173   42.793
O   -6.516   34.400   41.332
C   -5.190   33.951   41.801
C   -4.472   35.400   34.886
C   -5.493   35.723   33.795
C   -6.063   36.974   33.475
C   -5.625   38.372   34.117
C   -7.067   36.925   32.285
C   -6.424   36.893   30.838
C   -7.166   35.992   29.823
C   -6.769   36.287   28.367
C   -5.617   35.504   27.690
C   -8.073   36.369   27.543
C   -8.722   37.794   27.520
C   -10.095   37.849   28.193
C   -10.049   38.544   29.555
C   -10.710   37.560   30.592
C   -10.840   39.827   29.509
C   -9.890   40.995   29.217
C   -9.835   42.153   30.307
C   -8.444   42.803   30.259
C   -7.278   41.794   30.602
C   -8.335   44.062   31.204
H   -5.445   42.092   39.911
H   -10.391   45.097   42.754
H   -13.090   39.469   43.793
H   -5.677   37.565   40.566
H   -5.797   39.846   38.573
H   -3.511   38.983   39.246
H   -4.003   39.672   40.897
H   -3.831   40.639   39.499
H   -6.390   37.887   37.748
H   -7.536   36.949   38.543
H   -6.134   35.131   38.365
H   -4.933   35.804   39.276
H   -5.058   45.496   40.760
H   -5.989   45.264   39.219
H   -4.984   44.039   39.864
H   -8.987   46.432   43.635
H   -9.767   47.251   42.253
H   -8.322   47.912   43.153
H   -12.990   44.218   42.799
H   -13.274   41.943   44.590
H   -11.780   45.146   44.747
H   -12.098   43.634   45.593
H   -13.461   44.590   44.991
H   -14.398   41.271   41.922
H   -14.796   42.905   42.368
H   -15.160   41.131   44.557
H   -15.974   40.434   43.173
H   -16.464   42.045   43.765
H   -13.600   36.678   43.014
H   -12.862   37.069   44.630
H   -12.565   35.552   43.799
H   -8.339   35.707   40.387
H   -4.764   33.425   40.947
H   -5.050   33.305   42.668
H   -4.564   34.810   42.044
H   -4.148   34.370   34.741
H   -3.658   36.123   34.831
H   -5.877   34.904   33.187
H   -6.456   39.066   33.989
H   -4.735   38.764   33.625
H   -5.371   38.052   35.127
H   -7.727   37.768   32.489
H   -7.759   36.101   32.459
H   -5.378   36.593   30.894
H   -6.495   37.937   30.532
H   -8.248   36.108   29.873
H   -6.875   34.954   29.981
H   -6.372   37.300   28.427
H   -5.306   34.581   28.181
H   -4.723   36.101   27.509
H   -5.958   35.241   26.689
H   -8.776   35.603   27.869
H   -7.720   36.225   26.522
H   -8.742   38.096   26.473
H   -8.049   38.463   28.057
H   -10.431   36.813   28.237
H   -10.750   38.469   27.580
H   -9.051   38.733   29.952
H   -10.436   36.540   30.324
H   -11.798   37.505   30.638
H   -10.292   37.761   31.578
H   -11.370   39.896   30.459
H   -11.564   39.986   28.709
H   -10.383   41.599   28.455
H   -8.919   40.733   28.797
H   -10.242   41.906   31.288
H   -10.585   42.877   29.989
H   -8.422   43.201   29.245
H   -6.513   41.678   29.834
H   -7.560   40.772   30.856
H   -6.681   42.127   31.450
H   -8.565   44.848   30.485
H   -7.434   44.193   31.803
H   -9.201   44.133   31.862

