%nproc=24
%mem=75GB
#p cam-b3lyp/Def2SVP td=(nstates=5)

step_1701_chromophore_26 TDDFT with cam-b3lyp functional

0 1
Mg   -8.876   18.450   42.117
C   -5.367   17.914   42.184
C   -8.345   21.650   41.249
C   -12.112   18.658   41.645
C   -9.252   14.942   42.426
N   -7.031   19.634   41.760
C   -5.758   19.182   41.721
C   -4.854   20.387   41.300
C   -5.748   21.604   40.968
C   -7.122   20.956   41.381
C   -5.440   22.887   41.868
C   -3.793   19.967   40.341
C   -4.327   19.204   39.032
C   -4.129   19.760   37.645
O   -3.277   20.552   37.258
O   -5.072   19.328   36.880
N   -10.091   20.005   41.660
C   -9.714   21.280   41.335
C   -10.844   22.089   41.216
C   -11.982   21.280   41.447
C   -11.462   19.909   41.518
C   -10.863   23.602   41.067
C   -13.493   21.679   41.473
O   -13.849   22.813   41.317
C   -14.597   20.745   42.034
N   -10.443   17.006   41.980
C   -11.676   17.341   41.808
C   -12.588   16.173   41.884
C   -11.696   14.951   42.161
C   -10.314   15.650   42.228
C   -13.653   16.373   42.998
C   -11.786   13.737   41.193
C   -13.162   13.364   40.606
N   -7.580   16.743   42.358
C   -7.925   15.441   42.533
C   -6.705   14.647   42.695
C   -5.667   15.595   42.589
C   -6.243   16.830   42.371
C   -6.501   13.223   42.791
C   -4.238   15.788   42.595
O   -3.356   14.950   42.786
C   -3.930   17.330   42.433
C   -3.400   17.781   43.721
O   -2.252   18.142   43.917
O   -4.381   17.547   44.664
C   -3.812   17.519   45.993
C   -5.116   19.683   35.452
C   -6.189   18.883   34.776
C   -7.074   19.244   33.779
C   -7.095   20.620   33.183
C   -7.955   18.247   33.030
C   -9.489   18.346   33.421
C   -10.312   18.614   32.087
C   -11.174   19.965   32.190
C   -12.646   19.589   32.358
C   -10.992   20.786   30.890
C   -11.375   22.289   31.088
C   -10.121   23.186   31.233
C   -10.177   24.426   30.266
C   -9.252   25.615   30.727
C   -10.029   24.010   28.755
C   -11.079   24.682   27.893
C   -10.503   24.758   26.393
C   -11.546   24.426   25.241
C   -11.598   22.836   25.111
C   -11.195   25.014   23.855
H   -8.056   22.645   40.904
H   -13.167   18.769   41.387
H   -9.406   13.862   42.472
H   -4.296   20.675   42.191
H   -5.600   21.819   39.910
H   -4.493   22.784   42.398
H   -6.229   23.000   42.611
H   -5.427   23.794   41.262
H   -2.887   19.629   40.843
H   -3.465   20.929   39.946
H   -5.397   19.014   39.121
H   -3.828   18.236   39.070
H   -11.666   23.990   40.440
H   -9.909   23.814   40.585
H   -10.902   24.150   42.008
H   -14.253   20.207   42.917
H   -14.996   20.052   41.293
H   -15.454   21.348   42.335
H   -13.063   16.057   40.910
H   -11.813   14.611   43.190
H   -14.593   16.411   42.447
H   -13.471   17.320   43.505
H   -13.754   15.583   43.742
H   -11.619   12.856   41.812
H   -10.993   13.723   40.445
H   -13.167   13.595   39.541
H   -13.891   13.926   41.191
H   -13.368   12.339   40.913
H   -5.628   13.128   42.145
H   -7.357   12.708   42.356
H   -6.376   12.932   43.834
H   -3.242   17.650   41.650
H   -2.939   16.876   45.883
H   -4.531   17.129   46.714
H   -3.440   18.490   46.320
H   -4.204   19.299   34.995
H   -5.234   20.752   35.278
H   -6.157   17.827   35.042
H   -6.456   20.561   32.302
H   -6.669   21.404   33.809
H   -8.129   20.787   32.882
H   -7.727   17.278   33.474
H   -7.733   18.342   31.967
H   -9.622   19.216   34.065
H   -9.890   17.503   33.983
H   -10.978   17.760   31.969
H   -9.666   18.769   31.223
H   -10.898   20.432   33.136
H   -12.977   19.703   33.390
H   -12.977   18.609   32.014
H   -13.321   20.294   31.874
H   -11.727   20.453   30.157
H   -9.984   20.746   30.479
H   -11.892   22.369   32.045
H   -12.025   22.505   30.240
H   -9.211   22.744   30.826
H   -9.900   23.397   32.279
H   -11.224   24.725   30.298
H   -9.951   26.284   31.227
H   -8.733   26.128   29.918
H   -8.629   25.225   31.532
H   -10.181   22.936   28.649
H   -9.044   24.313   28.399
H   -11.280   25.719   28.161
H   -11.981   24.076   27.817
H   -9.688   24.064   26.189
H   -10.182   25.770   26.147
H   -12.490   24.940   25.422
H   -11.052   22.361   25.925
H   -11.276   22.463   24.139
H   -12.615   22.454   25.209
H   -11.877   25.826   23.599
H   -11.147   24.253   23.076
H   -10.225   25.504   23.946

